p cnf 1781 5594
1 0
-194 2 66 0
-194 -2 -66 0
194 -2 66 0
194 2 -66 0
-195 2 0
-195 66 0
195 -2 -66 0
-196 2 66 0
-196 -2 -66 0
196 -2 66 0
196 2 -66 0
-197 3 67 0
-197 -3 -67 0
197 -3 67 0
197 3 -67 0
-198 197 195 0
-198 -197 -195 0
198 -197 195 0
198 197 -195 0
-199 3 0
-199 67 0
199 -3 -67 0
-200 3 67 0
-200 -3 -67 0
200 -3 67 0
200 3 -67 0
-201 195 0
-201 200 0
201 -195 -200 0
-202 -199 0
-202 -201 0
202 199 201 0
-203 4 68 0
-203 -4 -68 0
203 -4 68 0
203 4 -68 0
-204 203 -202 0
-204 -203 202 0
204 -203 -202 0
204 203 202 0
-205 4 0
-205 68 0
205 -4 -68 0
-206 4 68 0
-206 -4 -68 0
206 -4 68 0
206 4 -68 0
-207 -202 0
-207 206 0
207 202 -206 0
-208 -205 0
-208 -207 0
208 205 207 0
-209 5 69 0
-209 -5 -69 0
209 -5 69 0
209 5 -69 0
-210 209 -208 0
-210 -209 208 0
210 -209 -208 0
210 209 208 0
-211 5 0
-211 69 0
211 -5 -69 0
-212 5 69 0
-212 -5 -69 0
212 -5 69 0
212 5 -69 0
-213 -208 0
-213 212 0
213 208 -212 0
-214 -211 0
-214 -213 0
214 211 213 0
-215 6 70 0
-215 -6 -70 0
215 -6 70 0
215 6 -70 0
-216 215 -214 0
-216 -215 214 0
216 -215 -214 0
216 215 214 0
-217 6 0
-217 70 0
217 -6 -70 0
-218 6 70 0
-218 -6 -70 0
218 -6 70 0
218 6 -70 0
-219 -214 0
-219 218 0
219 214 -218 0
-220 -217 0
-220 -219 0
220 217 219 0
-221 7 71 0
-221 -7 -71 0
221 -7 71 0
221 7 -71 0
-222 221 -220 0
-222 -221 220 0
222 -221 -220 0
222 221 220 0
-223 7 0
-223 71 0
223 -7 -71 0
-224 7 71 0
-224 -7 -71 0
224 -7 71 0
224 7 -71 0
-225 -220 0
-225 224 0
225 220 -224 0
-226 -223 0
-226 -225 0
226 223 225 0
-227 8 72 0
-227 -8 -72 0
227 -8 72 0
227 8 -72 0
-228 227 -226 0
-228 -227 226 0
228 -227 -226 0
228 227 226 0
-229 8 0
-229 72 0
229 -8 -72 0
-230 8 72 0
-230 -8 -72 0
230 -8 72 0
230 8 -72 0
-231 -226 0
-231 230 0
231 226 -230 0
-232 -229 0
-232 -231 0
232 229 231 0
-233 9 73 0
-233 -9 -73 0
233 -9 73 0
233 9 -73 0
-234 233 -232 0
-234 -233 232 0
234 -233 -232 0
234 233 232 0
-235 9 0
-235 73 0
235 -9 -73 0
-236 9 73 0
-236 -9 -73 0
236 -9 73 0
236 9 -73 0
-237 -232 0
-237 236 0
237 232 -236 0
-238 -235 0
-238 -237 0
238 235 237 0
-239 10 74 0
-239 -10 -74 0
239 -10 74 0
239 10 -74 0
-240 239 -238 0
-240 -239 238 0
240 -239 -238 0
240 239 238 0
-241 10 0
-241 74 0
241 -10 -74 0
-242 10 74 0
-242 -10 -74 0
242 -10 74 0
242 10 -74 0
-243 -238 0
-243 242 0
243 238 -242 0
-244 -241 0
-244 -243 0
244 241 243 0
-245 11 75 0
-245 -11 -75 0
245 -11 75 0
245 11 -75 0
-246 245 -244 0
-246 -245 244 0
246 -245 -244 0
246 245 244 0
-247 11 0
-247 75 0
247 -11 -75 0
-248 11 75 0
-248 -11 -75 0
248 -11 75 0
248 11 -75 0
-249 -244 0
-249 248 0
249 244 -248 0
-250 -247 0
-250 -249 0
250 247 249 0
-251 12 76 0
-251 -12 -76 0
251 -12 76 0
251 12 -76 0
-252 251 -250 0
-252 -251 250 0
252 -251 -250 0
252 251 250 0
-253 12 0
-253 76 0
253 -12 -76 0
-254 12 76 0
-254 -12 -76 0
254 -12 76 0
254 12 -76 0
-255 -250 0
-255 254 0
255 250 -254 0
-256 -253 0
-256 -255 0
256 253 255 0
-257 13 77 0
-257 -13 -77 0
257 -13 77 0
257 13 -77 0
-258 257 -256 0
-258 -257 256 0
258 -257 -256 0
258 257 256 0
-259 13 0
-259 77 0
259 -13 -77 0
-260 13 77 0
-260 -13 -77 0
260 -13 77 0
260 13 -77 0
-261 -256 0
-261 260 0
261 256 -260 0
-262 -259 0
-262 -261 0
262 259 261 0
-263 14 78 0
-263 -14 -78 0
263 -14 78 0
263 14 -78 0
-264 263 -262 0
-264 -263 262 0
264 -263 -262 0
264 263 262 0
-265 14 0
-265 78 0
265 -14 -78 0
-266 14 78 0
-266 -14 -78 0
266 -14 78 0
266 14 -78 0
-267 -262 0
-267 266 0
267 262 -266 0
-268 -265 0
-268 -267 0
268 265 267 0
-269 15 79 0
-269 -15 -79 0
269 -15 79 0
269 15 -79 0
-270 269 -268 0
-270 -269 268 0
270 -269 -268 0
270 269 268 0
-271 15 0
-271 79 0
271 -15 -79 0
-272 15 79 0
-272 -15 -79 0
272 -15 79 0
272 15 -79 0
-273 -268 0
-273 272 0
273 268 -272 0
-274 -271 0
-274 -273 0
274 271 273 0
-275 16 80 0
-275 -16 -80 0
275 -16 80 0
275 16 -80 0
-276 275 -274 0
-276 -275 274 0
276 -275 -274 0
276 275 274 0
-277 16 0
-277 80 0
277 -16 -80 0
-278 16 80 0
-278 -16 -80 0
278 -16 80 0
278 16 -80 0
-279 -274 0
-279 278 0
279 274 -278 0
-280 -277 0
-280 -279 0
280 277 279 0
-281 17 81 0
-281 -17 -81 0
281 -17 81 0
281 17 -81 0
-282 281 -280 0
-282 -281 280 0
282 -281 -280 0
282 281 280 0
-283 17 0
-283 81 0
283 -17 -81 0
-284 17 81 0
-284 -17 -81 0
284 -17 81 0
284 17 -81 0
-285 -280 0
-285 284 0
285 280 -284 0
-286 -283 0
-286 -285 0
286 283 285 0
-287 18 82 0
-287 -18 -82 0
287 -18 82 0
287 18 -82 0
-288 287 -286 0
-288 -287 286 0
288 -287 -286 0
288 287 286 0
-289 18 0
-289 82 0
289 -18 -82 0
-290 18 82 0
-290 -18 -82 0
290 -18 82 0
290 18 -82 0
-291 -286 0
-291 290 0
291 286 -290 0
-292 -289 0
-292 -291 0
292 289 291 0
-293 19 83 0
-293 -19 -83 0
293 -19 83 0
293 19 -83 0
-294 293 -292 0
-294 -293 292 0
294 -293 -292 0
294 293 292 0
-295 19 0
-295 83 0
295 -19 -83 0
-296 19 83 0
-296 -19 -83 0
296 -19 83 0
296 19 -83 0
-297 -292 0
-297 296 0
297 292 -296 0
-298 -295 0
-298 -297 0
298 295 297 0
-299 20 84 0
-299 -20 -84 0
299 -20 84 0
299 20 -84 0
-300 299 -298 0
-300 -299 298 0
300 -299 -298 0
300 299 298 0
-301 20 0
-301 84 0
301 -20 -84 0
-302 20 84 0
-302 -20 -84 0
302 -20 84 0
302 20 -84 0
-303 -298 0
-303 302 0
303 298 -302 0
-304 -301 0
-304 -303 0
304 301 303 0
-305 21 85 0
-305 -21 -85 0
305 -21 85 0
305 21 -85 0
-306 305 -304 0
-306 -305 304 0
306 -305 -304 0
306 305 304 0
-307 21 0
-307 85 0
307 -21 -85 0
-308 21 85 0
-308 -21 -85 0
308 -21 85 0
308 21 -85 0
-309 -304 0
-309 308 0
309 304 -308 0
-310 -307 0
-310 -309 0
310 307 309 0
-311 22 86 0
-311 -22 -86 0
311 -22 86 0
311 22 -86 0
-312 311 -310 0
-312 -311 310 0
312 -311 -310 0
312 311 310 0
-313 22 0
-313 86 0
313 -22 -86 0
-314 22 86 0
-314 -22 -86 0
314 -22 86 0
314 22 -86 0
-315 -310 0
-315 314 0
315 310 -314 0
-316 -313 0
-316 -315 0
316 313 315 0
-317 23 87 0
-317 -23 -87 0
317 -23 87 0
317 23 -87 0
-318 317 -316 0
-318 -317 316 0
318 -317 -316 0
318 317 316 0
-319 23 0
-319 87 0
319 -23 -87 0
-320 23 87 0
-320 -23 -87 0
320 -23 87 0
320 23 -87 0
-321 -316 0
-321 320 0
321 316 -320 0
-322 -319 0
-322 -321 0
322 319 321 0
-323 24 88 0
-323 -24 -88 0
323 -24 88 0
323 24 -88 0
-324 323 -322 0
-324 -323 322 0
324 -323 -322 0
324 323 322 0
-325 24 0
-325 88 0
325 -24 -88 0
-326 24 88 0
-326 -24 -88 0
326 -24 88 0
326 24 -88 0
-327 -322 0
-327 326 0
327 322 -326 0
-328 -325 0
-328 -327 0
328 325 327 0
-329 25 89 0
-329 -25 -89 0
329 -25 89 0
329 25 -89 0
-330 329 -328 0
-330 -329 328 0
330 -329 -328 0
330 329 328 0
-331 25 0
-331 89 0
331 -25 -89 0
-332 25 89 0
-332 -25 -89 0
332 -25 89 0
332 25 -89 0
-333 -328 0
-333 332 0
333 328 -332 0
-334 -331 0
-334 -333 0
334 331 333 0
-335 26 90 0
-335 -26 -90 0
335 -26 90 0
335 26 -90 0
-336 335 -334 0
-336 -335 334 0
336 -335 -334 0
336 335 334 0
-337 26 0
-337 90 0
337 -26 -90 0
-338 26 90 0
-338 -26 -90 0
338 -26 90 0
338 26 -90 0
-339 -334 0
-339 338 0
339 334 -338 0
-340 -337 0
-340 -339 0
340 337 339 0
-341 27 91 0
-341 -27 -91 0
341 -27 91 0
341 27 -91 0
-342 341 -340 0
-342 -341 340 0
342 -341 -340 0
342 341 340 0
-343 27 0
-343 91 0
343 -27 -91 0
-344 27 91 0
-344 -27 -91 0
344 -27 91 0
344 27 -91 0
-345 -340 0
-345 344 0
345 340 -344 0
-346 -343 0
-346 -345 0
346 343 345 0
-347 28 92 0
-347 -28 -92 0
347 -28 92 0
347 28 -92 0
-348 347 -346 0
-348 -347 346 0
348 -347 -346 0
348 347 346 0
-349 28 0
-349 92 0
349 -28 -92 0
-350 28 92 0
-350 -28 -92 0
350 -28 92 0
350 28 -92 0
-351 -346 0
-351 350 0
351 346 -350 0
-352 -349 0
-352 -351 0
352 349 351 0
-353 29 93 0
-353 -29 -93 0
353 -29 93 0
353 29 -93 0
-354 353 -352 0
-354 -353 352 0
354 -353 -352 0
354 353 352 0
-355 29 0
-355 93 0
355 -29 -93 0
-356 29 93 0
-356 -29 -93 0
356 -29 93 0
356 29 -93 0
-357 -352 0
-357 356 0
357 352 -356 0
-358 -355 0
-358 -357 0
358 355 357 0
-359 30 94 0
-359 -30 -94 0
359 -30 94 0
359 30 -94 0
-360 359 -358 0
-360 -359 358 0
360 -359 -358 0
360 359 358 0
-361 30 0
-361 94 0
361 -30 -94 0
-362 30 94 0
-362 -30 -94 0
362 -30 94 0
362 30 -94 0
-363 -358 0
-363 362 0
363 358 -362 0
-364 -361 0
-364 -363 0
364 361 363 0
-365 31 95 0
-365 -31 -95 0
365 -31 95 0
365 31 -95 0
-366 365 -364 0
-366 -365 364 0
366 -365 -364 0
366 365 364 0
-367 31 0
-367 95 0
367 -31 -95 0
-368 31 95 0
-368 -31 -95 0
368 -31 95 0
368 31 -95 0
-369 -364 0
-369 368 0
369 364 -368 0
-370 -367 0
-370 -369 0
370 367 369 0
-371 32 96 0
-371 -32 -96 0
371 -32 96 0
371 32 -96 0
-372 371 -370 0
-372 -371 370 0
372 -371 -370 0
372 371 370 0
-373 32 0
-373 96 0
373 -32 -96 0
-374 32 96 0
-374 -32 -96 0
374 -32 96 0
374 32 -96 0
-375 -370 0
-375 374 0
375 370 -374 0
-376 -373 0
-376 -375 0
376 373 375 0
-377 33 97 0
-377 -33 -97 0
377 -33 97 0
377 33 -97 0
-378 377 -376 0
-378 -377 376 0
378 -377 -376 0
378 377 376 0
-379 33 0
-379 97 0
379 -33 -97 0
-380 33 97 0
-380 -33 -97 0
380 -33 97 0
380 33 -97 0
-381 -376 0
-381 380 0
381 376 -380 0
-382 -379 0
-382 -381 0
382 379 381 0
-383 34 98 0
-383 -34 -98 0
383 -34 98 0
383 34 -98 0
-384 383 -382 0
-384 -383 382 0
384 -383 -382 0
384 383 382 0
-385 34 0
-385 98 0
385 -34 -98 0
-386 34 98 0
-386 -34 -98 0
386 -34 98 0
386 34 -98 0
-387 -382 0
-387 386 0
387 382 -386 0
-388 -385 0
-388 -387 0
388 385 387 0
-389 35 99 0
-389 -35 -99 0
389 -35 99 0
389 35 -99 0
-390 389 -388 0
-390 -389 388 0
390 -389 -388 0
390 389 388 0
-391 35 0
-391 99 0
391 -35 -99 0
-392 35 99 0
-392 -35 -99 0
392 -35 99 0
392 35 -99 0
-393 -388 0
-393 392 0
393 388 -392 0
-394 -391 0
-394 -393 0
394 391 393 0
-395 36 100 0
-395 -36 -100 0
395 -36 100 0
395 36 -100 0
-396 395 -394 0
-396 -395 394 0
396 -395 -394 0
396 395 394 0
-397 36 0
-397 100 0
397 -36 -100 0
-398 36 100 0
-398 -36 -100 0
398 -36 100 0
398 36 -100 0
-399 -394 0
-399 398 0
399 394 -398 0
-400 -397 0
-400 -399 0
400 397 399 0
-401 37 101 0
-401 -37 -101 0
401 -37 101 0
401 37 -101 0
-402 401 -400 0
-402 -401 400 0
402 -401 -400 0
402 401 400 0
-403 37 0
-403 101 0
403 -37 -101 0
-404 37 101 0
-404 -37 -101 0
404 -37 101 0
404 37 -101 0
-405 -400 0
-405 404 0
405 400 -404 0
-406 -403 0
-406 -405 0
406 403 405 0
-407 38 102 0
-407 -38 -102 0
407 -38 102 0
407 38 -102 0
-408 407 -406 0
-408 -407 406 0
408 -407 -406 0
408 407 406 0
-409 38 0
-409 102 0
409 -38 -102 0
-410 38 102 0
-410 -38 -102 0
410 -38 102 0
410 38 -102 0
-411 -406 0
-411 410 0
411 406 -410 0
-412 -409 0
-412 -411 0
412 409 411 0
-413 39 103 0
-413 -39 -103 0
413 -39 103 0
413 39 -103 0
-414 413 -412 0
-414 -413 412 0
414 -413 -412 0
414 413 412 0
-415 39 0
-415 103 0
415 -39 -103 0
-416 39 103 0
-416 -39 -103 0
416 -39 103 0
416 39 -103 0
-417 -412 0
-417 416 0
417 412 -416 0
-418 -415 0
-418 -417 0
418 415 417 0
-419 40 104 0
-419 -40 -104 0
419 -40 104 0
419 40 -104 0
-420 419 -418 0
-420 -419 418 0
420 -419 -418 0
420 419 418 0
-421 40 0
-421 104 0
421 -40 -104 0
-422 40 104 0
-422 -40 -104 0
422 -40 104 0
422 40 -104 0
-423 -418 0
-423 422 0
423 418 -422 0
-424 -421 0
-424 -423 0
424 421 423 0
-425 41 105 0
-425 -41 -105 0
425 -41 105 0
425 41 -105 0
-426 425 -424 0
-426 -425 424 0
426 -425 -424 0
426 425 424 0
-427 41 0
-427 105 0
427 -41 -105 0
-428 41 105 0
-428 -41 -105 0
428 -41 105 0
428 41 -105 0
-429 -424 0
-429 428 0
429 424 -428 0
-430 -427 0
-430 -429 0
430 427 429 0
-431 42 106 0
-431 -42 -106 0
431 -42 106 0
431 42 -106 0
-432 431 -430 0
-432 -431 430 0
432 -431 -430 0
432 431 430 0
-433 42 0
-433 106 0
433 -42 -106 0
-434 42 106 0
-434 -42 -106 0
434 -42 106 0
434 42 -106 0
-435 -430 0
-435 434 0
435 430 -434 0
-436 -433 0
-436 -435 0
436 433 435 0
-437 43 107 0
-437 -43 -107 0
437 -43 107 0
437 43 -107 0
-438 437 -436 0
-438 -437 436 0
438 -437 -436 0
438 437 436 0
-439 43 0
-439 107 0
439 -43 -107 0
-440 43 107 0
-440 -43 -107 0
440 -43 107 0
440 43 -107 0
-441 -436 0
-441 440 0
441 436 -440 0
-442 -439 0
-442 -441 0
442 439 441 0
-443 44 108 0
-443 -44 -108 0
443 -44 108 0
443 44 -108 0
-444 443 -442 0
-444 -443 442 0
444 -443 -442 0
444 443 442 0
-445 44 0
-445 108 0
445 -44 -108 0
-446 44 108 0
-446 -44 -108 0
446 -44 108 0
446 44 -108 0
-447 -442 0
-447 446 0
447 442 -446 0
-448 -445 0
-448 -447 0
448 445 447 0
-449 45 109 0
-449 -45 -109 0
449 -45 109 0
449 45 -109 0
-450 449 -448 0
-450 -449 448 0
450 -449 -448 0
450 449 448 0
-451 45 0
-451 109 0
451 -45 -109 0
-452 45 109 0
-452 -45 -109 0
452 -45 109 0
452 45 -109 0
-453 -448 0
-453 452 0
453 448 -452 0
-454 -451 0
-454 -453 0
454 451 453 0
-455 46 110 0
-455 -46 -110 0
455 -46 110 0
455 46 -110 0
-456 455 -454 0
-456 -455 454 0
456 -455 -454 0
456 455 454 0
-457 46 0
-457 110 0
457 -46 -110 0
-458 46 110 0
-458 -46 -110 0
458 -46 110 0
458 46 -110 0
-459 -454 0
-459 458 0
459 454 -458 0
-460 -457 0
-460 -459 0
460 457 459 0
-461 47 111 0
-461 -47 -111 0
461 -47 111 0
461 47 -111 0
-462 461 -460 0
-462 -461 460 0
462 -461 -460 0
462 461 460 0
-463 47 0
-463 111 0
463 -47 -111 0
-464 47 111 0
-464 -47 -111 0
464 -47 111 0
464 47 -111 0
-465 -460 0
-465 464 0
465 460 -464 0
-466 -463 0
-466 -465 0
466 463 465 0
-467 48 112 0
-467 -48 -112 0
467 -48 112 0
467 48 -112 0
-468 467 -466 0
-468 -467 466 0
468 -467 -466 0
468 467 466 0
-469 48 0
-469 112 0
469 -48 -112 0
-470 48 112 0
-470 -48 -112 0
470 -48 112 0
470 48 -112 0
-471 -466 0
-471 470 0
471 466 -470 0
-472 -469 0
-472 -471 0
472 469 471 0
-473 49 113 0
-473 -49 -113 0
473 -49 113 0
473 49 -113 0
-474 473 -472 0
-474 -473 472 0
474 -473 -472 0
474 473 472 0
-475 49 0
-475 113 0
475 -49 -113 0
-476 49 113 0
-476 -49 -113 0
476 -49 113 0
476 49 -113 0
-477 -472 0
-477 476 0
477 472 -476 0
-478 -475 0
-478 -477 0
478 475 477 0
-479 50 114 0
-479 -50 -114 0
479 -50 114 0
479 50 -114 0
-480 479 -478 0
-480 -479 478 0
480 -479 -478 0
480 479 478 0
-481 50 0
-481 114 0
481 -50 -114 0
-482 50 114 0
-482 -50 -114 0
482 -50 114 0
482 50 -114 0
-483 -478 0
-483 482 0
483 478 -482 0
-484 -481 0
-484 -483 0
484 481 483 0
-485 51 115 0
-485 -51 -115 0
485 -51 115 0
485 51 -115 0
-486 485 -484 0
-486 -485 484 0
486 -485 -484 0
486 485 484 0
-487 51 0
-487 115 0
487 -51 -115 0
-488 51 115 0
-488 -51 -115 0
488 -51 115 0
488 51 -115 0
-489 -484 0
-489 488 0
489 484 -488 0
-490 -487 0
-490 -489 0
490 487 489 0
-491 52 116 0
-491 -52 -116 0
491 -52 116 0
491 52 -116 0
-492 491 -490 0
-492 -491 490 0
492 -491 -490 0
492 491 490 0
-493 52 0
-493 116 0
493 -52 -116 0
-494 52 116 0
-494 -52 -116 0
494 -52 116 0
494 52 -116 0
-495 -490 0
-495 494 0
495 490 -494 0
-496 -493 0
-496 -495 0
496 493 495 0
-497 53 117 0
-497 -53 -117 0
497 -53 117 0
497 53 -117 0
-498 497 -496 0
-498 -497 496 0
498 -497 -496 0
498 497 496 0
-499 53 0
-499 117 0
499 -53 -117 0
-500 53 117 0
-500 -53 -117 0
500 -53 117 0
500 53 -117 0
-501 -496 0
-501 500 0
501 496 -500 0
-502 -499 0
-502 -501 0
502 499 501 0
-503 54 118 0
-503 -54 -118 0
503 -54 118 0
503 54 -118 0
-504 503 -502 0
-504 -503 502 0
504 -503 -502 0
504 503 502 0
-505 54 0
-505 118 0
505 -54 -118 0
-506 54 118 0
-506 -54 -118 0
506 -54 118 0
506 54 -118 0
-507 -502 0
-507 506 0
507 502 -506 0
-508 -505 0
-508 -507 0
508 505 507 0
-509 55 119 0
-509 -55 -119 0
509 -55 119 0
509 55 -119 0
-510 509 -508 0
-510 -509 508 0
510 -509 -508 0
510 509 508 0
-511 55 0
-511 119 0
511 -55 -119 0
-512 55 119 0
-512 -55 -119 0
512 -55 119 0
512 55 -119 0
-513 -508 0
-513 512 0
513 508 -512 0
-514 -511 0
-514 -513 0
514 511 513 0
-515 56 120 0
-515 -56 -120 0
515 -56 120 0
515 56 -120 0
-516 515 -514 0
-516 -515 514 0
516 -515 -514 0
516 515 514 0
-517 56 0
-517 120 0
517 -56 -120 0
-518 56 120 0
-518 -56 -120 0
518 -56 120 0
518 56 -120 0
-519 -514 0
-519 518 0
519 514 -518 0
-520 -517 0
-520 -519 0
520 517 519 0
-521 57 121 0
-521 -57 -121 0
521 -57 121 0
521 57 -121 0
-522 521 -520 0
-522 -521 520 0
522 -521 -520 0
522 521 520 0
-523 57 0
-523 121 0
523 -57 -121 0
-524 57 121 0
-524 -57 -121 0
524 -57 121 0
524 57 -121 0
-525 -520 0
-525 524 0
525 520 -524 0
-526 -523 0
-526 -525 0
526 523 525 0
-527 58 122 0
-527 -58 -122 0
527 -58 122 0
527 58 -122 0
-528 527 -526 0
-528 -527 526 0
528 -527 -526 0
528 527 526 0
-529 58 0
-529 122 0
529 -58 -122 0
-530 58 122 0
-530 -58 -122 0
530 -58 122 0
530 58 -122 0
-531 -526 0
-531 530 0
531 526 -530 0
-532 -529 0
-532 -531 0
532 529 531 0
-533 59 123 0
-533 -59 -123 0
533 -59 123 0
533 59 -123 0
-534 533 -532 0
-534 -533 532 0
534 -533 -532 0
534 533 532 0
-535 59 0
-535 123 0
535 -59 -123 0
-536 59 123 0
-536 -59 -123 0
536 -59 123 0
536 59 -123 0
-537 -532 0
-537 536 0
537 532 -536 0
-538 -535 0
-538 -537 0
538 535 537 0
-539 60 124 0
-539 -60 -124 0
539 -60 124 0
539 60 -124 0
-540 539 -538 0
-540 -539 538 0
540 -539 -538 0
540 539 538 0
-541 60 0
-541 124 0
541 -60 -124 0
-542 60 124 0
-542 -60 -124 0
542 -60 124 0
542 60 -124 0
-543 -538 0
-543 542 0
543 538 -542 0
-544 -541 0
-544 -543 0
544 541 543 0
-545 61 125 0
-545 -61 -125 0
545 -61 125 0
545 61 -125 0
-546 545 -544 0
-546 -545 544 0
546 -545 -544 0
546 545 544 0
-547 61 0
-547 125 0
547 -61 -125 0
-548 61 125 0
-548 -61 -125 0
548 -61 125 0
548 61 -125 0
-549 -544 0
-549 548 0
549 544 -548 0
-550 -547 0
-550 -549 0
550 547 549 0
-551 62 126 0
-551 -62 -126 0
551 -62 126 0
551 62 -126 0
-552 551 -550 0
-552 -551 550 0
552 -551 -550 0
552 551 550 0
-553 62 0
-553 126 0
553 -62 -126 0
-554 62 126 0
-554 -62 -126 0
554 -62 126 0
554 62 -126 0
-555 -550 0
-555 554 0
555 550 -554 0
-556 -553 0
-556 -555 0
556 553 555 0
-557 63 127 0
-557 -63 -127 0
557 -63 127 0
557 63 -127 0
-558 557 -556 0
-558 -557 556 0
558 -557 -556 0
558 557 556 0
-559 63 0
-559 127 0
559 -63 -127 0
-560 63 127 0
-560 -63 -127 0
560 -63 127 0
560 63 -127 0
-561 -556 0
-561 560 0
561 556 -560 0
-562 -559 0
-562 -561 0
562 559 561 0
-563 64 128 0
-563 -64 -128 0
563 -64 128 0
563 64 -128 0
-564 563 -562 0
-564 -563 562 0
564 -563 -562 0
564 563 562 0
-565 64 0
-565 128 0
565 -64 -128 0
-566 64 128 0
-566 -64 -128 0
566 -64 128 0
566 64 -128 0
-567 -562 0
-567 566 0
567 562 -566 0
-568 -565 0
-568 -567 0
568 565 567 0
-569 65 129 0
-569 -65 -129 0
569 -65 129 0
569 65 -129 0
-570 569 -568 0
-570 -569 568 0
570 -569 -568 0
570 569 568 0
-571 65 0
-571 129 0
571 -65 -129 0
-572 65 129 0
-572 -65 -129 0
572 -65 129 0
572 65 -129 0
-573 -568 0
-573 572 0
573 568 -572 0
-574 -571 0
-574 -573 0
574 571 573 0
-575 194 130 0
-575 -194 -130 0
575 -194 130 0
575 194 -130 0
-576 194 0
-576 130 0
576 -194 -130 0
-577 194 130 0
-577 -194 -130 0
577 -194 130 0
577 194 -130 0
-578 198 131 0
-578 -198 -131 0
578 -198 131 0
578 198 -131 0
-579 578 576 0
-579 -578 -576 0
579 -578 576 0
579 578 -576 0
-580 198 0
-580 131 0
580 -198 -131 0
-581 198 131 0
-581 -198 -131 0
581 -198 131 0
581 198 -131 0
-582 576 0
-582 581 0
582 -576 -581 0
-583 -580 0
-583 -582 0
583 580 582 0
-584 204 132 0
-584 -204 -132 0
584 -204 132 0
584 204 -132 0
-585 584 -583 0
-585 -584 583 0
585 -584 -583 0
585 584 583 0
-586 204 0
-586 132 0
586 -204 -132 0
-587 204 132 0
-587 -204 -132 0
587 -204 132 0
587 204 -132 0
-588 -583 0
-588 587 0
588 583 -587 0
-589 -586 0
-589 -588 0
589 586 588 0
-590 210 133 0
-590 -210 -133 0
590 -210 133 0
590 210 -133 0
-591 590 -589 0
-591 -590 589 0
591 -590 -589 0
591 590 589 0
-592 210 0
-592 133 0
592 -210 -133 0
-593 210 133 0
-593 -210 -133 0
593 -210 133 0
593 210 -133 0
-594 -589 0
-594 593 0
594 589 -593 0
-595 -592 0
-595 -594 0
595 592 594 0
-596 216 134 0
-596 -216 -134 0
596 -216 134 0
596 216 -134 0
-597 596 -595 0
-597 -596 595 0
597 -596 -595 0
597 596 595 0
-598 216 0
-598 134 0
598 -216 -134 0
-599 216 134 0
-599 -216 -134 0
599 -216 134 0
599 216 -134 0
-600 -595 0
-600 599 0
600 595 -599 0
-601 -598 0
-601 -600 0
601 598 600 0
-602 222 135 0
-602 -222 -135 0
602 -222 135 0
602 222 -135 0
-603 602 -601 0
-603 -602 601 0
603 -602 -601 0
603 602 601 0
-604 222 0
-604 135 0
604 -222 -135 0
-605 222 135 0
-605 -222 -135 0
605 -222 135 0
605 222 -135 0
-606 -601 0
-606 605 0
606 601 -605 0
-607 -604 0
-607 -606 0
607 604 606 0
-608 228 136 0
-608 -228 -136 0
608 -228 136 0
608 228 -136 0
-609 608 -607 0
-609 -608 607 0
609 -608 -607 0
609 608 607 0
-610 228 0
-610 136 0
610 -228 -136 0
-611 228 136 0
-611 -228 -136 0
611 -228 136 0
611 228 -136 0
-612 -607 0
-612 611 0
612 607 -611 0
-613 -610 0
-613 -612 0
613 610 612 0
-614 234 137 0
-614 -234 -137 0
614 -234 137 0
614 234 -137 0
-615 614 -613 0
-615 -614 613 0
615 -614 -613 0
615 614 613 0
-616 234 0
-616 137 0
616 -234 -137 0
-617 234 137 0
-617 -234 -137 0
617 -234 137 0
617 234 -137 0
-618 -613 0
-618 617 0
618 613 -617 0
-619 -616 0
-619 -618 0
619 616 618 0
-620 240 138 0
-620 -240 -138 0
620 -240 138 0
620 240 -138 0
-621 620 -619 0
-621 -620 619 0
621 -620 -619 0
621 620 619 0
-622 240 0
-622 138 0
622 -240 -138 0
-623 240 138 0
-623 -240 -138 0
623 -240 138 0
623 240 -138 0
-624 -619 0
-624 623 0
624 619 -623 0
-625 -622 0
-625 -624 0
625 622 624 0
-626 246 139 0
-626 -246 -139 0
626 -246 139 0
626 246 -139 0
-627 626 -625 0
-627 -626 625 0
627 -626 -625 0
627 626 625 0
-628 246 0
-628 139 0
628 -246 -139 0
-629 246 139 0
-629 -246 -139 0
629 -246 139 0
629 246 -139 0
-630 -625 0
-630 629 0
630 625 -629 0
-631 -628 0
-631 -630 0
631 628 630 0
-632 252 140 0
-632 -252 -140 0
632 -252 140 0
632 252 -140 0
-633 632 -631 0
-633 -632 631 0
633 -632 -631 0
633 632 631 0
-634 252 0
-634 140 0
634 -252 -140 0
-635 252 140 0
-635 -252 -140 0
635 -252 140 0
635 252 -140 0
-636 -631 0
-636 635 0
636 631 -635 0
-637 -634 0
-637 -636 0
637 634 636 0
-638 258 141 0
-638 -258 -141 0
638 -258 141 0
638 258 -141 0
-639 638 -637 0
-639 -638 637 0
639 -638 -637 0
639 638 637 0
-640 258 0
-640 141 0
640 -258 -141 0
-641 258 141 0
-641 -258 -141 0
641 -258 141 0
641 258 -141 0
-642 -637 0
-642 641 0
642 637 -641 0
-643 -640 0
-643 -642 0
643 640 642 0
-644 264 142 0
-644 -264 -142 0
644 -264 142 0
644 264 -142 0
-645 644 -643 0
-645 -644 643 0
645 -644 -643 0
645 644 643 0
-646 264 0
-646 142 0
646 -264 -142 0
-647 264 142 0
-647 -264 -142 0
647 -264 142 0
647 264 -142 0
-648 -643 0
-648 647 0
648 643 -647 0
-649 -646 0
-649 -648 0
649 646 648 0
-650 270 143 0
-650 -270 -143 0
650 -270 143 0
650 270 -143 0
-651 650 -649 0
-651 -650 649 0
651 -650 -649 0
651 650 649 0
-652 270 0
-652 143 0
652 -270 -143 0
-653 270 143 0
-653 -270 -143 0
653 -270 143 0
653 270 -143 0
-654 -649 0
-654 653 0
654 649 -653 0
-655 -652 0
-655 -654 0
655 652 654 0
-656 276 144 0
-656 -276 -144 0
656 -276 144 0
656 276 -144 0
-657 656 -655 0
-657 -656 655 0
657 -656 -655 0
657 656 655 0
-658 276 0
-658 144 0
658 -276 -144 0
-659 276 144 0
-659 -276 -144 0
659 -276 144 0
659 276 -144 0
-660 -655 0
-660 659 0
660 655 -659 0
-661 -658 0
-661 -660 0
661 658 660 0
-662 282 145 0
-662 -282 -145 0
662 -282 145 0
662 282 -145 0
-663 662 -661 0
-663 -662 661 0
663 -662 -661 0
663 662 661 0
-664 282 0
-664 145 0
664 -282 -145 0
-665 282 145 0
-665 -282 -145 0
665 -282 145 0
665 282 -145 0
-666 -661 0
-666 665 0
666 661 -665 0
-667 -664 0
-667 -666 0
667 664 666 0
-668 288 146 0
-668 -288 -146 0
668 -288 146 0
668 288 -146 0
-669 668 -667 0
-669 -668 667 0
669 -668 -667 0
669 668 667 0
-670 288 0
-670 146 0
670 -288 -146 0
-671 288 146 0
-671 -288 -146 0
671 -288 146 0
671 288 -146 0
-672 -667 0
-672 671 0
672 667 -671 0
-673 -670 0
-673 -672 0
673 670 672 0
-674 294 147 0
-674 -294 -147 0
674 -294 147 0
674 294 -147 0
-675 674 -673 0
-675 -674 673 0
675 -674 -673 0
675 674 673 0
-676 294 0
-676 147 0
676 -294 -147 0
-677 294 147 0
-677 -294 -147 0
677 -294 147 0
677 294 -147 0
-678 -673 0
-678 677 0
678 673 -677 0
-679 -676 0
-679 -678 0
679 676 678 0
-680 300 148 0
-680 -300 -148 0
680 -300 148 0
680 300 -148 0
-681 680 -679 0
-681 -680 679 0
681 -680 -679 0
681 680 679 0
-682 300 0
-682 148 0
682 -300 -148 0
-683 300 148 0
-683 -300 -148 0
683 -300 148 0
683 300 -148 0
-684 -679 0
-684 683 0
684 679 -683 0
-685 -682 0
-685 -684 0
685 682 684 0
-686 306 149 0
-686 -306 -149 0
686 -306 149 0
686 306 -149 0
-687 686 -685 0
-687 -686 685 0
687 -686 -685 0
687 686 685 0
-688 306 0
-688 149 0
688 -306 -149 0
-689 306 149 0
-689 -306 -149 0
689 -306 149 0
689 306 -149 0
-690 -685 0
-690 689 0
690 685 -689 0
-691 -688 0
-691 -690 0
691 688 690 0
-692 312 150 0
-692 -312 -150 0
692 -312 150 0
692 312 -150 0
-693 692 -691 0
-693 -692 691 0
693 -692 -691 0
693 692 691 0
-694 312 0
-694 150 0
694 -312 -150 0
-695 312 150 0
-695 -312 -150 0
695 -312 150 0
695 312 -150 0
-696 -691 0
-696 695 0
696 691 -695 0
-697 -694 0
-697 -696 0
697 694 696 0
-698 318 151 0
-698 -318 -151 0
698 -318 151 0
698 318 -151 0
-699 698 -697 0
-699 -698 697 0
699 -698 -697 0
699 698 697 0
-700 318 0
-700 151 0
700 -318 -151 0
-701 318 151 0
-701 -318 -151 0
701 -318 151 0
701 318 -151 0
-702 -697 0
-702 701 0
702 697 -701 0
-703 -700 0
-703 -702 0
703 700 702 0
-704 324 152 0
-704 -324 -152 0
704 -324 152 0
704 324 -152 0
-705 704 -703 0
-705 -704 703 0
705 -704 -703 0
705 704 703 0
-706 324 0
-706 152 0
706 -324 -152 0
-707 324 152 0
-707 -324 -152 0
707 -324 152 0
707 324 -152 0
-708 -703 0
-708 707 0
708 703 -707 0
-709 -706 0
-709 -708 0
709 706 708 0
-710 330 153 0
-710 -330 -153 0
710 -330 153 0
710 330 -153 0
-711 710 -709 0
-711 -710 709 0
711 -710 -709 0
711 710 709 0
-712 330 0
-712 153 0
712 -330 -153 0
-713 330 153 0
-713 -330 -153 0
713 -330 153 0
713 330 -153 0
-714 -709 0
-714 713 0
714 709 -713 0
-715 -712 0
-715 -714 0
715 712 714 0
-716 336 154 0
-716 -336 -154 0
716 -336 154 0
716 336 -154 0
-717 716 -715 0
-717 -716 715 0
717 -716 -715 0
717 716 715 0
-718 336 0
-718 154 0
718 -336 -154 0
-719 336 154 0
-719 -336 -154 0
719 -336 154 0
719 336 -154 0
-720 -715 0
-720 719 0
720 715 -719 0
-721 -718 0
-721 -720 0
721 718 720 0
-722 342 155 0
-722 -342 -155 0
722 -342 155 0
722 342 -155 0
-723 722 -721 0
-723 -722 721 0
723 -722 -721 0
723 722 721 0
-724 342 0
-724 155 0
724 -342 -155 0
-725 342 155 0
-725 -342 -155 0
725 -342 155 0
725 342 -155 0
-726 -721 0
-726 725 0
726 721 -725 0
-727 -724 0
-727 -726 0
727 724 726 0
-728 348 156 0
-728 -348 -156 0
728 -348 156 0
728 348 -156 0
-729 728 -727 0
-729 -728 727 0
729 -728 -727 0
729 728 727 0
-730 348 0
-730 156 0
730 -348 -156 0
-731 348 156 0
-731 -348 -156 0
731 -348 156 0
731 348 -156 0
-732 -727 0
-732 731 0
732 727 -731 0
-733 -730 0
-733 -732 0
733 730 732 0
-734 354 157 0
-734 -354 -157 0
734 -354 157 0
734 354 -157 0
-735 734 -733 0
-735 -734 733 0
735 -734 -733 0
735 734 733 0
-736 354 0
-736 157 0
736 -354 -157 0
-737 354 157 0
-737 -354 -157 0
737 -354 157 0
737 354 -157 0
-738 -733 0
-738 737 0
738 733 -737 0
-739 -736 0
-739 -738 0
739 736 738 0
-740 360 158 0
-740 -360 -158 0
740 -360 158 0
740 360 -158 0
-741 740 -739 0
-741 -740 739 0
741 -740 -739 0
741 740 739 0
-742 360 0
-742 158 0
742 -360 -158 0
-743 360 158 0
-743 -360 -158 0
743 -360 158 0
743 360 -158 0
-744 -739 0
-744 743 0
744 739 -743 0
-745 -742 0
-745 -744 0
745 742 744 0
-746 366 159 0
-746 -366 -159 0
746 -366 159 0
746 366 -159 0
-747 746 -745 0
-747 -746 745 0
747 -746 -745 0
747 746 745 0
-748 366 0
-748 159 0
748 -366 -159 0
-749 366 159 0
-749 -366 -159 0
749 -366 159 0
749 366 -159 0
-750 -745 0
-750 749 0
750 745 -749 0
-751 -748 0
-751 -750 0
751 748 750 0
-752 372 160 0
-752 -372 -160 0
752 -372 160 0
752 372 -160 0
-753 752 -751 0
-753 -752 751 0
753 -752 -751 0
753 752 751 0
-754 372 0
-754 160 0
754 -372 -160 0
-755 372 160 0
-755 -372 -160 0
755 -372 160 0
755 372 -160 0
-756 -751 0
-756 755 0
756 751 -755 0
-757 -754 0
-757 -756 0
757 754 756 0
-758 378 161 0
-758 -378 -161 0
758 -378 161 0
758 378 -161 0
-759 758 -757 0
-759 -758 757 0
759 -758 -757 0
759 758 757 0
-760 378 0
-760 161 0
760 -378 -161 0
-761 378 161 0
-761 -378 -161 0
761 -378 161 0
761 378 -161 0
-762 -757 0
-762 761 0
762 757 -761 0
-763 -760 0
-763 -762 0
763 760 762 0
-764 384 162 0
-764 -384 -162 0
764 -384 162 0
764 384 -162 0
-765 764 -763 0
-765 -764 763 0
765 -764 -763 0
765 764 763 0
-766 384 0
-766 162 0
766 -384 -162 0
-767 384 162 0
-767 -384 -162 0
767 -384 162 0
767 384 -162 0
-768 -763 0
-768 767 0
768 763 -767 0
-769 -766 0
-769 -768 0
769 766 768 0
-770 390 163 0
-770 -390 -163 0
770 -390 163 0
770 390 -163 0
-771 770 -769 0
-771 -770 769 0
771 -770 -769 0
771 770 769 0
-772 390 0
-772 163 0
772 -390 -163 0
-773 390 163 0
-773 -390 -163 0
773 -390 163 0
773 390 -163 0
-774 -769 0
-774 773 0
774 769 -773 0
-775 -772 0
-775 -774 0
775 772 774 0
-776 396 164 0
-776 -396 -164 0
776 -396 164 0
776 396 -164 0
-777 776 -775 0
-777 -776 775 0
777 -776 -775 0
777 776 775 0
-778 396 0
-778 164 0
778 -396 -164 0
-779 396 164 0
-779 -396 -164 0
779 -396 164 0
779 396 -164 0
-780 -775 0
-780 779 0
780 775 -779 0
-781 -778 0
-781 -780 0
781 778 780 0
-782 402 165 0
-782 -402 -165 0
782 -402 165 0
782 402 -165 0
-783 782 -781 0
-783 -782 781 0
783 -782 -781 0
783 782 781 0
-784 402 0
-784 165 0
784 -402 -165 0
-785 402 165 0
-785 -402 -165 0
785 -402 165 0
785 402 -165 0
-786 -781 0
-786 785 0
786 781 -785 0
-787 -784 0
-787 -786 0
787 784 786 0
-788 408 166 0
-788 -408 -166 0
788 -408 166 0
788 408 -166 0
-789 788 -787 0
-789 -788 787 0
789 -788 -787 0
789 788 787 0
-790 408 0
-790 166 0
790 -408 -166 0
-791 408 166 0
-791 -408 -166 0
791 -408 166 0
791 408 -166 0
-792 -787 0
-792 791 0
792 787 -791 0
-793 -790 0
-793 -792 0
793 790 792 0
-794 414 167 0
-794 -414 -167 0
794 -414 167 0
794 414 -167 0
-795 794 -793 0
-795 -794 793 0
795 -794 -793 0
795 794 793 0
-796 414 0
-796 167 0
796 -414 -167 0
-797 414 167 0
-797 -414 -167 0
797 -414 167 0
797 414 -167 0
-798 -793 0
-798 797 0
798 793 -797 0
-799 -796 0
-799 -798 0
799 796 798 0
-800 420 168 0
-800 -420 -168 0
800 -420 168 0
800 420 -168 0
-801 800 -799 0
-801 -800 799 0
801 -800 -799 0
801 800 799 0
-802 420 0
-802 168 0
802 -420 -168 0
-803 420 168 0
-803 -420 -168 0
803 -420 168 0
803 420 -168 0
-804 -799 0
-804 803 0
804 799 -803 0
-805 -802 0
-805 -804 0
805 802 804 0
-806 426 169 0
-806 -426 -169 0
806 -426 169 0
806 426 -169 0
-807 806 -805 0
-807 -806 805 0
807 -806 -805 0
807 806 805 0
-808 426 0
-808 169 0
808 -426 -169 0
-809 426 169 0
-809 -426 -169 0
809 -426 169 0
809 426 -169 0
-810 -805 0
-810 809 0
810 805 -809 0
-811 -808 0
-811 -810 0
811 808 810 0
-812 432 170 0
-812 -432 -170 0
812 -432 170 0
812 432 -170 0
-813 812 -811 0
-813 -812 811 0
813 -812 -811 0
813 812 811 0
-814 432 0
-814 170 0
814 -432 -170 0
-815 432 170 0
-815 -432 -170 0
815 -432 170 0
815 432 -170 0
-816 -811 0
-816 815 0
816 811 -815 0
-817 -814 0
-817 -816 0
817 814 816 0
-818 438 171 0
-818 -438 -171 0
818 -438 171 0
818 438 -171 0
-819 818 -817 0
-819 -818 817 0
819 -818 -817 0
819 818 817 0
-820 438 0
-820 171 0
820 -438 -171 0
-821 438 171 0
-821 -438 -171 0
821 -438 171 0
821 438 -171 0
-822 -817 0
-822 821 0
822 817 -821 0
-823 -820 0
-823 -822 0
823 820 822 0
-824 444 172 0
-824 -444 -172 0
824 -444 172 0
824 444 -172 0
-825 824 -823 0
-825 -824 823 0
825 -824 -823 0
825 824 823 0
-826 444 0
-826 172 0
826 -444 -172 0
-827 444 172 0
-827 -444 -172 0
827 -444 172 0
827 444 -172 0
-828 -823 0
-828 827 0
828 823 -827 0
-829 -826 0
-829 -828 0
829 826 828 0
-830 450 173 0
-830 -450 -173 0
830 -450 173 0
830 450 -173 0
-831 830 -829 0
-831 -830 829 0
831 -830 -829 0
831 830 829 0
-832 450 0
-832 173 0
832 -450 -173 0
-833 450 173 0
-833 -450 -173 0
833 -450 173 0
833 450 -173 0
-834 -829 0
-834 833 0
834 829 -833 0
-835 -832 0
-835 -834 0
835 832 834 0
-836 456 174 0
-836 -456 -174 0
836 -456 174 0
836 456 -174 0
-837 836 -835 0
-837 -836 835 0
837 -836 -835 0
837 836 835 0
-838 456 0
-838 174 0
838 -456 -174 0
-839 456 174 0
-839 -456 -174 0
839 -456 174 0
839 456 -174 0
-840 -835 0
-840 839 0
840 835 -839 0
-841 -838 0
-841 -840 0
841 838 840 0
-842 462 175 0
-842 -462 -175 0
842 -462 175 0
842 462 -175 0
-843 842 -841 0
-843 -842 841 0
843 -842 -841 0
843 842 841 0
-844 462 0
-844 175 0
844 -462 -175 0
-845 462 175 0
-845 -462 -175 0
845 -462 175 0
845 462 -175 0
-846 -841 0
-846 845 0
846 841 -845 0
-847 -844 0
-847 -846 0
847 844 846 0
-848 468 176 0
-848 -468 -176 0
848 -468 176 0
848 468 -176 0
-849 848 -847 0
-849 -848 847 0
849 -848 -847 0
849 848 847 0
-850 468 0
-850 176 0
850 -468 -176 0
-851 468 176 0
-851 -468 -176 0
851 -468 176 0
851 468 -176 0
-852 -847 0
-852 851 0
852 847 -851 0
-853 -850 0
-853 -852 0
853 850 852 0
-854 474 177 0
-854 -474 -177 0
854 -474 177 0
854 474 -177 0
-855 854 -853 0
-855 -854 853 0
855 -854 -853 0
855 854 853 0
-856 474 0
-856 177 0
856 -474 -177 0
-857 474 177 0
-857 -474 -177 0
857 -474 177 0
857 474 -177 0
-858 -853 0
-858 857 0
858 853 -857 0
-859 -856 0
-859 -858 0
859 856 858 0
-860 480 178 0
-860 -480 -178 0
860 -480 178 0
860 480 -178 0
-861 860 -859 0
-861 -860 859 0
861 -860 -859 0
861 860 859 0
-862 480 0
-862 178 0
862 -480 -178 0
-863 480 178 0
-863 -480 -178 0
863 -480 178 0
863 480 -178 0
-864 -859 0
-864 863 0
864 859 -863 0
-865 -862 0
-865 -864 0
865 862 864 0
-866 486 179 0
-866 -486 -179 0
866 -486 179 0
866 486 -179 0
-867 866 -865 0
-867 -866 865 0
867 -866 -865 0
867 866 865 0
-868 486 0
-868 179 0
868 -486 -179 0
-869 486 179 0
-869 -486 -179 0
869 -486 179 0
869 486 -179 0
-870 -865 0
-870 869 0
870 865 -869 0
-871 -868 0
-871 -870 0
871 868 870 0
-872 492 180 0
-872 -492 -180 0
872 -492 180 0
872 492 -180 0
-873 872 -871 0
-873 -872 871 0
873 -872 -871 0
873 872 871 0
-874 492 0
-874 180 0
874 -492 -180 0
-875 492 180 0
-875 -492 -180 0
875 -492 180 0
875 492 -180 0
-876 -871 0
-876 875 0
876 871 -875 0
-877 -874 0
-877 -876 0
877 874 876 0
-878 498 181 0
-878 -498 -181 0
878 -498 181 0
878 498 -181 0
-879 878 -877 0
-879 -878 877 0
879 -878 -877 0
879 878 877 0
-880 498 0
-880 181 0
880 -498 -181 0
-881 498 181 0
-881 -498 -181 0
881 -498 181 0
881 498 -181 0
-882 -877 0
-882 881 0
882 877 -881 0
-883 -880 0
-883 -882 0
883 880 882 0
-884 504 182 0
-884 -504 -182 0
884 -504 182 0
884 504 -182 0
-885 884 -883 0
-885 -884 883 0
885 -884 -883 0
885 884 883 0
-886 504 0
-886 182 0
886 -504 -182 0
-887 504 182 0
-887 -504 -182 0
887 -504 182 0
887 504 -182 0
-888 -883 0
-888 887 0
888 883 -887 0
-889 -886 0
-889 -888 0
889 886 888 0
-890 510 183 0
-890 -510 -183 0
890 -510 183 0
890 510 -183 0
-891 890 -889 0
-891 -890 889 0
891 -890 -889 0
891 890 889 0
-892 510 0
-892 183 0
892 -510 -183 0
-893 510 183 0
-893 -510 -183 0
893 -510 183 0
893 510 -183 0
-894 -889 0
-894 893 0
894 889 -893 0
-895 -892 0
-895 -894 0
895 892 894 0
-896 516 184 0
-896 -516 -184 0
896 -516 184 0
896 516 -184 0
-897 896 -895 0
-897 -896 895 0
897 -896 -895 0
897 896 895 0
-898 516 0
-898 184 0
898 -516 -184 0
-899 516 184 0
-899 -516 -184 0
899 -516 184 0
899 516 -184 0
-900 -895 0
-900 899 0
900 895 -899 0
-901 -898 0
-901 -900 0
901 898 900 0
-902 522 185 0
-902 -522 -185 0
902 -522 185 0
902 522 -185 0
-903 902 -901 0
-903 -902 901 0
903 -902 -901 0
903 902 901 0
-904 522 0
-904 185 0
904 -522 -185 0
-905 522 185 0
-905 -522 -185 0
905 -522 185 0
905 522 -185 0
-906 -901 0
-906 905 0
906 901 -905 0
-907 -904 0
-907 -906 0
907 904 906 0
-908 528 186 0
-908 -528 -186 0
908 -528 186 0
908 528 -186 0
-909 908 -907 0
-909 -908 907 0
909 -908 -907 0
909 908 907 0
-910 528 0
-910 186 0
910 -528 -186 0
-911 528 186 0
-911 -528 -186 0
911 -528 186 0
911 528 -186 0
-912 -907 0
-912 911 0
912 907 -911 0
-913 -910 0
-913 -912 0
913 910 912 0
-914 534 187 0
-914 -534 -187 0
914 -534 187 0
914 534 -187 0
-915 914 -913 0
-915 -914 913 0
915 -914 -913 0
915 914 913 0
-916 534 0
-916 187 0
916 -534 -187 0
-917 534 187 0
-917 -534 -187 0
917 -534 187 0
917 534 -187 0
-918 -913 0
-918 917 0
918 913 -917 0
-919 -916 0
-919 -918 0
919 916 918 0
-920 540 188 0
-920 -540 -188 0
920 -540 188 0
920 540 -188 0
-921 920 -919 0
-921 -920 919 0
921 -920 -919 0
921 920 919 0
-922 540 0
-922 188 0
922 -540 -188 0
-923 540 188 0
-923 -540 -188 0
923 -540 188 0
923 540 -188 0
-924 -919 0
-924 923 0
924 919 -923 0
-925 -922 0
-925 -924 0
925 922 924 0
-926 546 189 0
-926 -546 -189 0
926 -546 189 0
926 546 -189 0
-927 926 -925 0
-927 -926 925 0
927 -926 -925 0
927 926 925 0
-928 546 0
-928 189 0
928 -546 -189 0
-929 546 189 0
-929 -546 -189 0
929 -546 189 0
929 546 -189 0
-930 -925 0
-930 929 0
930 925 -929 0
-931 -928 0
-931 -930 0
931 928 930 0
-932 552 190 0
-932 -552 -190 0
932 -552 190 0
932 552 -190 0
-933 932 -931 0
-933 -932 931 0
933 -932 -931 0
933 932 931 0
-934 552 0
-934 190 0
934 -552 -190 0
-935 552 190 0
-935 -552 -190 0
935 -552 190 0
935 552 -190 0
-936 -931 0
-936 935 0
936 931 -935 0
-937 -934 0
-937 -936 0
937 934 936 0
-938 558 191 0
-938 -558 -191 0
938 -558 191 0
938 558 -191 0
-939 938 -937 0
-939 -938 937 0
939 -938 -937 0
939 938 937 0
-940 558 0
-940 191 0
940 -558 -191 0
-941 558 191 0
-941 -558 -191 0
941 -558 191 0
941 558 -191 0
-942 -937 0
-942 941 0
942 937 -941 0
-943 -940 0
-943 -942 0
943 940 942 0
-944 564 192 0
-944 -564 -192 0
944 -564 192 0
944 564 -192 0
-945 944 -943 0
-945 -944 943 0
945 -944 -943 0
945 944 943 0
-946 564 0
-946 192 0
946 -564 -192 0
-947 564 192 0
-947 -564 -192 0
947 -564 192 0
947 564 -192 0
-948 -943 0
-948 947 0
948 943 -947 0
-949 -946 0
-949 -948 0
949 946 948 0
-950 570 193 0
-950 -570 -193 0
950 -570 193 0
950 570 -193 0
-951 950 -949 0
-951 -950 949 0
951 -950 -949 0
951 950 949 0
-952 570 0
-952 193 0
952 -570 -193 0
-953 570 193 0
-953 -570 -193 0
953 -570 193 0
953 570 -193 0
-954 -949 0
-954 953 0
954 949 -953 0
-955 -952 0
-955 -954 0
955 952 954 0
-956 66 130 0
-956 -66 -130 0
956 -66 130 0
956 66 -130 0
-957 66 0
-957 130 0
957 -66 -130 0
-958 66 130 0
-958 -66 -130 0
958 -66 130 0
958 66 -130 0
-959 67 131 0
-959 -67 -131 0
959 -67 131 0
959 67 -131 0
-960 959 957 0
-960 -959 -957 0
960 -959 957 0
960 959 -957 0
-961 67 0
-961 131 0
961 -67 -131 0
-962 67 131 0
-962 -67 -131 0
962 -67 131 0
962 67 -131 0
-963 957 0
-963 962 0
963 -957 -962 0
-964 -961 0
-964 -963 0
964 961 963 0
-965 68 132 0
-965 -68 -132 0
965 -68 132 0
965 68 -132 0
-966 965 -964 0
-966 -965 964 0
966 -965 -964 0
966 965 964 0
-967 68 0
-967 132 0
967 -68 -132 0
-968 68 132 0
-968 -68 -132 0
968 -68 132 0
968 68 -132 0
-969 -964 0
-969 968 0
969 964 -968 0
-970 -967 0
-970 -969 0
970 967 969 0
-971 69 133 0
-971 -69 -133 0
971 -69 133 0
971 69 -133 0
-972 971 -970 0
-972 -971 970 0
972 -971 -970 0
972 971 970 0
-973 69 0
-973 133 0
973 -69 -133 0
-974 69 133 0
-974 -69 -133 0
974 -69 133 0
974 69 -133 0
-975 -970 0
-975 974 0
975 970 -974 0
-976 -973 0
-976 -975 0
976 973 975 0
-977 70 134 0
-977 -70 -134 0
977 -70 134 0
977 70 -134 0
-978 977 -976 0
-978 -977 976 0
978 -977 -976 0
978 977 976 0
-979 70 0
-979 134 0
979 -70 -134 0
-980 70 134 0
-980 -70 -134 0
980 -70 134 0
980 70 -134 0
-981 -976 0
-981 980 0
981 976 -980 0
-982 -979 0
-982 -981 0
982 979 981 0
-983 71 135 0
-983 -71 -135 0
983 -71 135 0
983 71 -135 0
-984 983 -982 0
-984 -983 982 0
984 -983 -982 0
984 983 982 0
-985 71 0
-985 135 0
985 -71 -135 0
-986 71 135 0
-986 -71 -135 0
986 -71 135 0
986 71 -135 0
-987 -982 0
-987 986 0
987 982 -986 0
-988 -985 0
-988 -987 0
988 985 987 0
-989 72 136 0
-989 -72 -136 0
989 -72 136 0
989 72 -136 0
-990 989 -988 0
-990 -989 988 0
990 -989 -988 0
990 989 988 0
-991 72 0
-991 136 0
991 -72 -136 0
-992 72 136 0
-992 -72 -136 0
992 -72 136 0
992 72 -136 0
-993 -988 0
-993 992 0
993 988 -992 0
-994 -991 0
-994 -993 0
994 991 993 0
-995 73 137 0
-995 -73 -137 0
995 -73 137 0
995 73 -137 0
-996 995 -994 0
-996 -995 994 0
996 -995 -994 0
996 995 994 0
-997 73 0
-997 137 0
997 -73 -137 0
-998 73 137 0
-998 -73 -137 0
998 -73 137 0
998 73 -137 0
-999 -994 0
-999 998 0
999 994 -998 0
-1000 -997 0
-1000 -999 0
1000 997 999 0
-1001 74 138 0
-1001 -74 -138 0
1001 -74 138 0
1001 74 -138 0
-1002 1001 -1000 0
-1002 -1001 1000 0
1002 -1001 -1000 0
1002 1001 1000 0
-1003 74 0
-1003 138 0
1003 -74 -138 0
-1004 74 138 0
-1004 -74 -138 0
1004 -74 138 0
1004 74 -138 0
-1005 -1000 0
-1005 1004 0
1005 1000 -1004 0
-1006 -1003 0
-1006 -1005 0
1006 1003 1005 0
-1007 75 139 0
-1007 -75 -139 0
1007 -75 139 0
1007 75 -139 0
-1008 1007 -1006 0
-1008 -1007 1006 0
1008 -1007 -1006 0
1008 1007 1006 0
-1009 75 0
-1009 139 0
1009 -75 -139 0
-1010 75 139 0
-1010 -75 -139 0
1010 -75 139 0
1010 75 -139 0
-1011 -1006 0
-1011 1010 0
1011 1006 -1010 0
-1012 -1009 0
-1012 -1011 0
1012 1009 1011 0
-1013 76 140 0
-1013 -76 -140 0
1013 -76 140 0
1013 76 -140 0
-1014 1013 -1012 0
-1014 -1013 1012 0
1014 -1013 -1012 0
1014 1013 1012 0
-1015 76 0
-1015 140 0
1015 -76 -140 0
-1016 76 140 0
-1016 -76 -140 0
1016 -76 140 0
1016 76 -140 0
-1017 -1012 0
-1017 1016 0
1017 1012 -1016 0
-1018 -1015 0
-1018 -1017 0
1018 1015 1017 0
-1019 77 141 0
-1019 -77 -141 0
1019 -77 141 0
1019 77 -141 0
-1020 1019 -1018 0
-1020 -1019 1018 0
1020 -1019 -1018 0
1020 1019 1018 0
-1021 77 0
-1021 141 0
1021 -77 -141 0
-1022 77 141 0
-1022 -77 -141 0
1022 -77 141 0
1022 77 -141 0
-1023 -1018 0
-1023 1022 0
1023 1018 -1022 0
-1024 -1021 0
-1024 -1023 0
1024 1021 1023 0
-1025 78 142 0
-1025 -78 -142 0
1025 -78 142 0
1025 78 -142 0
-1026 1025 -1024 0
-1026 -1025 1024 0
1026 -1025 -1024 0
1026 1025 1024 0
-1027 78 0
-1027 142 0
1027 -78 -142 0
-1028 78 142 0
-1028 -78 -142 0
1028 -78 142 0
1028 78 -142 0
-1029 -1024 0
-1029 1028 0
1029 1024 -1028 0
-1030 -1027 0
-1030 -1029 0
1030 1027 1029 0
-1031 79 143 0
-1031 -79 -143 0
1031 -79 143 0
1031 79 -143 0
-1032 1031 -1030 0
-1032 -1031 1030 0
1032 -1031 -1030 0
1032 1031 1030 0
-1033 79 0
-1033 143 0
1033 -79 -143 0
-1034 79 143 0
-1034 -79 -143 0
1034 -79 143 0
1034 79 -143 0
-1035 -1030 0
-1035 1034 0
1035 1030 -1034 0
-1036 -1033 0
-1036 -1035 0
1036 1033 1035 0
-1037 80 144 0
-1037 -80 -144 0
1037 -80 144 0
1037 80 -144 0
-1038 1037 -1036 0
-1038 -1037 1036 0
1038 -1037 -1036 0
1038 1037 1036 0
-1039 80 0
-1039 144 0
1039 -80 -144 0
-1040 80 144 0
-1040 -80 -144 0
1040 -80 144 0
1040 80 -144 0
-1041 -1036 0
-1041 1040 0
1041 1036 -1040 0
-1042 -1039 0
-1042 -1041 0
1042 1039 1041 0
-1043 81 145 0
-1043 -81 -145 0
1043 -81 145 0
1043 81 -145 0
-1044 1043 -1042 0
-1044 -1043 1042 0
1044 -1043 -1042 0
1044 1043 1042 0
-1045 81 0
-1045 145 0
1045 -81 -145 0
-1046 81 145 0
-1046 -81 -145 0
1046 -81 145 0
1046 81 -145 0
-1047 -1042 0
-1047 1046 0
1047 1042 -1046 0
-1048 -1045 0
-1048 -1047 0
1048 1045 1047 0
-1049 82 146 0
-1049 -82 -146 0
1049 -82 146 0
1049 82 -146 0
-1050 1049 -1048 0
-1050 -1049 1048 0
1050 -1049 -1048 0
1050 1049 1048 0
-1051 82 0
-1051 146 0
1051 -82 -146 0
-1052 82 146 0
-1052 -82 -146 0
1052 -82 146 0
1052 82 -146 0
-1053 -1048 0
-1053 1052 0
1053 1048 -1052 0
-1054 -1051 0
-1054 -1053 0
1054 1051 1053 0
-1055 83 147 0
-1055 -83 -147 0
1055 -83 147 0
1055 83 -147 0
-1056 1055 -1054 0
-1056 -1055 1054 0
1056 -1055 -1054 0
1056 1055 1054 0
-1057 83 0
-1057 147 0
1057 -83 -147 0
-1058 83 147 0
-1058 -83 -147 0
1058 -83 147 0
1058 83 -147 0
-1059 -1054 0
-1059 1058 0
1059 1054 -1058 0
-1060 -1057 0
-1060 -1059 0
1060 1057 1059 0
-1061 84 148 0
-1061 -84 -148 0
1061 -84 148 0
1061 84 -148 0
-1062 1061 -1060 0
-1062 -1061 1060 0
1062 -1061 -1060 0
1062 1061 1060 0
-1063 84 0
-1063 148 0
1063 -84 -148 0
-1064 84 148 0
-1064 -84 -148 0
1064 -84 148 0
1064 84 -148 0
-1065 -1060 0
-1065 1064 0
1065 1060 -1064 0
-1066 -1063 0
-1066 -1065 0
1066 1063 1065 0
-1067 85 149 0
-1067 -85 -149 0
1067 -85 149 0
1067 85 -149 0
-1068 1067 -1066 0
-1068 -1067 1066 0
1068 -1067 -1066 0
1068 1067 1066 0
-1069 85 0
-1069 149 0
1069 -85 -149 0
-1070 85 149 0
-1070 -85 -149 0
1070 -85 149 0
1070 85 -149 0
-1071 -1066 0
-1071 1070 0
1071 1066 -1070 0
-1072 -1069 0
-1072 -1071 0
1072 1069 1071 0
-1073 86 150 0
-1073 -86 -150 0
1073 -86 150 0
1073 86 -150 0
-1074 1073 -1072 0
-1074 -1073 1072 0
1074 -1073 -1072 0
1074 1073 1072 0
-1075 86 0
-1075 150 0
1075 -86 -150 0
-1076 86 150 0
-1076 -86 -150 0
1076 -86 150 0
1076 86 -150 0
-1077 -1072 0
-1077 1076 0
1077 1072 -1076 0
-1078 -1075 0
-1078 -1077 0
1078 1075 1077 0
-1079 87 151 0
-1079 -87 -151 0
1079 -87 151 0
1079 87 -151 0
-1080 1079 -1078 0
-1080 -1079 1078 0
1080 -1079 -1078 0
1080 1079 1078 0
-1081 87 0
-1081 151 0
1081 -87 -151 0
-1082 87 151 0
-1082 -87 -151 0
1082 -87 151 0
1082 87 -151 0
-1083 -1078 0
-1083 1082 0
1083 1078 -1082 0
-1084 -1081 0
-1084 -1083 0
1084 1081 1083 0
-1085 88 152 0
-1085 -88 -152 0
1085 -88 152 0
1085 88 -152 0
-1086 1085 -1084 0
-1086 -1085 1084 0
1086 -1085 -1084 0
1086 1085 1084 0
-1087 88 0
-1087 152 0
1087 -88 -152 0
-1088 88 152 0
-1088 -88 -152 0
1088 -88 152 0
1088 88 -152 0
-1089 -1084 0
-1089 1088 0
1089 1084 -1088 0
-1090 -1087 0
-1090 -1089 0
1090 1087 1089 0
-1091 89 153 0
-1091 -89 -153 0
1091 -89 153 0
1091 89 -153 0
-1092 1091 -1090 0
-1092 -1091 1090 0
1092 -1091 -1090 0
1092 1091 1090 0
-1093 89 0
-1093 153 0
1093 -89 -153 0
-1094 89 153 0
-1094 -89 -153 0
1094 -89 153 0
1094 89 -153 0
-1095 -1090 0
-1095 1094 0
1095 1090 -1094 0
-1096 -1093 0
-1096 -1095 0
1096 1093 1095 0
-1097 90 154 0
-1097 -90 -154 0
1097 -90 154 0
1097 90 -154 0
-1098 1097 -1096 0
-1098 -1097 1096 0
1098 -1097 -1096 0
1098 1097 1096 0
-1099 90 0
-1099 154 0
1099 -90 -154 0
-1100 90 154 0
-1100 -90 -154 0
1100 -90 154 0
1100 90 -154 0
-1101 -1096 0
-1101 1100 0
1101 1096 -1100 0
-1102 -1099 0
-1102 -1101 0
1102 1099 1101 0
-1103 91 155 0
-1103 -91 -155 0
1103 -91 155 0
1103 91 -155 0
-1104 1103 -1102 0
-1104 -1103 1102 0
1104 -1103 -1102 0
1104 1103 1102 0
-1105 91 0
-1105 155 0
1105 -91 -155 0
-1106 91 155 0
-1106 -91 -155 0
1106 -91 155 0
1106 91 -155 0
-1107 -1102 0
-1107 1106 0
1107 1102 -1106 0
-1108 -1105 0
-1108 -1107 0
1108 1105 1107 0
-1109 92 156 0
-1109 -92 -156 0
1109 -92 156 0
1109 92 -156 0
-1110 1109 -1108 0
-1110 -1109 1108 0
1110 -1109 -1108 0
1110 1109 1108 0
-1111 92 0
-1111 156 0
1111 -92 -156 0
-1112 92 156 0
-1112 -92 -156 0
1112 -92 156 0
1112 92 -156 0
-1113 -1108 0
-1113 1112 0
1113 1108 -1112 0
-1114 -1111 0
-1114 -1113 0
1114 1111 1113 0
-1115 93 157 0
-1115 -93 -157 0
1115 -93 157 0
1115 93 -157 0
-1116 1115 -1114 0
-1116 -1115 1114 0
1116 -1115 -1114 0
1116 1115 1114 0
-1117 93 0
-1117 157 0
1117 -93 -157 0
-1118 93 157 0
-1118 -93 -157 0
1118 -93 157 0
1118 93 -157 0
-1119 -1114 0
-1119 1118 0
1119 1114 -1118 0
-1120 -1117 0
-1120 -1119 0
1120 1117 1119 0
-1121 94 158 0
-1121 -94 -158 0
1121 -94 158 0
1121 94 -158 0
-1122 1121 -1120 0
-1122 -1121 1120 0
1122 -1121 -1120 0
1122 1121 1120 0
-1123 94 0
-1123 158 0
1123 -94 -158 0
-1124 94 158 0
-1124 -94 -158 0
1124 -94 158 0
1124 94 -158 0
-1125 -1120 0
-1125 1124 0
1125 1120 -1124 0
-1126 -1123 0
-1126 -1125 0
1126 1123 1125 0
-1127 95 159 0
-1127 -95 -159 0
1127 -95 159 0
1127 95 -159 0
-1128 1127 -1126 0
-1128 -1127 1126 0
1128 -1127 -1126 0
1128 1127 1126 0
-1129 95 0
-1129 159 0
1129 -95 -159 0
-1130 95 159 0
-1130 -95 -159 0
1130 -95 159 0
1130 95 -159 0
-1131 -1126 0
-1131 1130 0
1131 1126 -1130 0
-1132 -1129 0
-1132 -1131 0
1132 1129 1131 0
-1133 96 160 0
-1133 -96 -160 0
1133 -96 160 0
1133 96 -160 0
-1134 1133 -1132 0
-1134 -1133 1132 0
1134 -1133 -1132 0
1134 1133 1132 0
-1135 96 0
-1135 160 0
1135 -96 -160 0
-1136 96 160 0
-1136 -96 -160 0
1136 -96 160 0
1136 96 -160 0
-1137 -1132 0
-1137 1136 0
1137 1132 -1136 0
-1138 -1135 0
-1138 -1137 0
1138 1135 1137 0
-1139 97 161 0
-1139 -97 -161 0
1139 -97 161 0
1139 97 -161 0
-1140 1139 -1138 0
-1140 -1139 1138 0
1140 -1139 -1138 0
1140 1139 1138 0
-1141 97 0
-1141 161 0
1141 -97 -161 0
-1142 97 161 0
-1142 -97 -161 0
1142 -97 161 0
1142 97 -161 0
-1143 -1138 0
-1143 1142 0
1143 1138 -1142 0
-1144 -1141 0
-1144 -1143 0
1144 1141 1143 0
-1145 98 162 0
-1145 -98 -162 0
1145 -98 162 0
1145 98 -162 0
-1146 1145 -1144 0
-1146 -1145 1144 0
1146 -1145 -1144 0
1146 1145 1144 0
-1147 98 0
-1147 162 0
1147 -98 -162 0
-1148 98 162 0
-1148 -98 -162 0
1148 -98 162 0
1148 98 -162 0
-1149 -1144 0
-1149 1148 0
1149 1144 -1148 0
-1150 -1147 0
-1150 -1149 0
1150 1147 1149 0
-1151 99 163 0
-1151 -99 -163 0
1151 -99 163 0
1151 99 -163 0
-1152 1151 -1150 0
-1152 -1151 1150 0
1152 -1151 -1150 0
1152 1151 1150 0
-1153 99 0
-1153 163 0
1153 -99 -163 0
-1154 99 163 0
-1154 -99 -163 0
1154 -99 163 0
1154 99 -163 0
-1155 -1150 0
-1155 1154 0
1155 1150 -1154 0
-1156 -1153 0
-1156 -1155 0
1156 1153 1155 0
-1157 100 164 0
-1157 -100 -164 0
1157 -100 164 0
1157 100 -164 0
-1158 1157 -1156 0
-1158 -1157 1156 0
1158 -1157 -1156 0
1158 1157 1156 0
-1159 100 0
-1159 164 0
1159 -100 -164 0
-1160 100 164 0
-1160 -100 -164 0
1160 -100 164 0
1160 100 -164 0
-1161 -1156 0
-1161 1160 0
1161 1156 -1160 0
-1162 -1159 0
-1162 -1161 0
1162 1159 1161 0
-1163 101 165 0
-1163 -101 -165 0
1163 -101 165 0
1163 101 -165 0
-1164 1163 -1162 0
-1164 -1163 1162 0
1164 -1163 -1162 0
1164 1163 1162 0
-1165 101 0
-1165 165 0
1165 -101 -165 0
-1166 101 165 0
-1166 -101 -165 0
1166 -101 165 0
1166 101 -165 0
-1167 -1162 0
-1167 1166 0
1167 1162 -1166 0
-1168 -1165 0
-1168 -1167 0
1168 1165 1167 0
-1169 102 166 0
-1169 -102 -166 0
1169 -102 166 0
1169 102 -166 0
-1170 1169 -1168 0
-1170 -1169 1168 0
1170 -1169 -1168 0
1170 1169 1168 0
-1171 102 0
-1171 166 0
1171 -102 -166 0
-1172 102 166 0
-1172 -102 -166 0
1172 -102 166 0
1172 102 -166 0
-1173 -1168 0
-1173 1172 0
1173 1168 -1172 0
-1174 -1171 0
-1174 -1173 0
1174 1171 1173 0
-1175 103 167 0
-1175 -103 -167 0
1175 -103 167 0
1175 103 -167 0
-1176 1175 -1174 0
-1176 -1175 1174 0
1176 -1175 -1174 0
1176 1175 1174 0
-1177 103 0
-1177 167 0
1177 -103 -167 0
-1178 103 167 0
-1178 -103 -167 0
1178 -103 167 0
1178 103 -167 0
-1179 -1174 0
-1179 1178 0
1179 1174 -1178 0
-1180 -1177 0
-1180 -1179 0
1180 1177 1179 0
-1181 104 168 0
-1181 -104 -168 0
1181 -104 168 0
1181 104 -168 0
-1182 1181 -1180 0
-1182 -1181 1180 0
1182 -1181 -1180 0
1182 1181 1180 0
-1183 104 0
-1183 168 0
1183 -104 -168 0
-1184 104 168 0
-1184 -104 -168 0
1184 -104 168 0
1184 104 -168 0
-1185 -1180 0
-1185 1184 0
1185 1180 -1184 0
-1186 -1183 0
-1186 -1185 0
1186 1183 1185 0
-1187 105 169 0
-1187 -105 -169 0
1187 -105 169 0
1187 105 -169 0
-1188 1187 -1186 0
-1188 -1187 1186 0
1188 -1187 -1186 0
1188 1187 1186 0
-1189 105 0
-1189 169 0
1189 -105 -169 0
-1190 105 169 0
-1190 -105 -169 0
1190 -105 169 0
1190 105 -169 0
-1191 -1186 0
-1191 1190 0
1191 1186 -1190 0
-1192 -1189 0
-1192 -1191 0
1192 1189 1191 0
-1193 106 170 0
-1193 -106 -170 0
1193 -106 170 0
1193 106 -170 0
-1194 1193 -1192 0
-1194 -1193 1192 0
1194 -1193 -1192 0
1194 1193 1192 0
-1195 106 0
-1195 170 0
1195 -106 -170 0
-1196 106 170 0
-1196 -106 -170 0
1196 -106 170 0
1196 106 -170 0
-1197 -1192 0
-1197 1196 0
1197 1192 -1196 0
-1198 -1195 0
-1198 -1197 0
1198 1195 1197 0
-1199 107 171 0
-1199 -107 -171 0
1199 -107 171 0
1199 107 -171 0
-1200 1199 -1198 0
-1200 -1199 1198 0
1200 -1199 -1198 0
1200 1199 1198 0
-1201 107 0
-1201 171 0
1201 -107 -171 0
-1202 107 171 0
-1202 -107 -171 0
1202 -107 171 0
1202 107 -171 0
-1203 -1198 0
-1203 1202 0
1203 1198 -1202 0
-1204 -1201 0
-1204 -1203 0
1204 1201 1203 0
-1205 108 172 0
-1205 -108 -172 0
1205 -108 172 0
1205 108 -172 0
-1206 1205 -1204 0
-1206 -1205 1204 0
1206 -1205 -1204 0
1206 1205 1204 0
-1207 108 0
-1207 172 0
1207 -108 -172 0
-1208 108 172 0
-1208 -108 -172 0
1208 -108 172 0
1208 108 -172 0
-1209 -1204 0
-1209 1208 0
1209 1204 -1208 0
-1210 -1207 0
-1210 -1209 0
1210 1207 1209 0
-1211 109 173 0
-1211 -109 -173 0
1211 -109 173 0
1211 109 -173 0
-1212 1211 -1210 0
-1212 -1211 1210 0
1212 -1211 -1210 0
1212 1211 1210 0
-1213 109 0
-1213 173 0
1213 -109 -173 0
-1214 109 173 0
-1214 -109 -173 0
1214 -109 173 0
1214 109 -173 0
-1215 -1210 0
-1215 1214 0
1215 1210 -1214 0
-1216 -1213 0
-1216 -1215 0
1216 1213 1215 0
-1217 110 174 0
-1217 -110 -174 0
1217 -110 174 0
1217 110 -174 0
-1218 1217 -1216 0
-1218 -1217 1216 0
1218 -1217 -1216 0
1218 1217 1216 0
-1219 110 0
-1219 174 0
1219 -110 -174 0
-1220 110 174 0
-1220 -110 -174 0
1220 -110 174 0
1220 110 -174 0
-1221 -1216 0
-1221 1220 0
1221 1216 -1220 0
-1222 -1219 0
-1222 -1221 0
1222 1219 1221 0
-1223 111 175 0
-1223 -111 -175 0
1223 -111 175 0
1223 111 -175 0
-1224 1223 -1222 0
-1224 -1223 1222 0
1224 -1223 -1222 0
1224 1223 1222 0
-1225 111 0
-1225 175 0
1225 -111 -175 0
-1226 111 175 0
-1226 -111 -175 0
1226 -111 175 0
1226 111 -175 0
-1227 -1222 0
-1227 1226 0
1227 1222 -1226 0
-1228 -1225 0
-1228 -1227 0
1228 1225 1227 0
-1229 112 176 0
-1229 -112 -176 0
1229 -112 176 0
1229 112 -176 0
-1230 1229 -1228 0
-1230 -1229 1228 0
1230 -1229 -1228 0
1230 1229 1228 0
-1231 112 0
-1231 176 0
1231 -112 -176 0
-1232 112 176 0
-1232 -112 -176 0
1232 -112 176 0
1232 112 -176 0
-1233 -1228 0
-1233 1232 0
1233 1228 -1232 0
-1234 -1231 0
-1234 -1233 0
1234 1231 1233 0
-1235 113 177 0
-1235 -113 -177 0
1235 -113 177 0
1235 113 -177 0
-1236 1235 -1234 0
-1236 -1235 1234 0
1236 -1235 -1234 0
1236 1235 1234 0
-1237 113 0
-1237 177 0
1237 -113 -177 0
-1238 113 177 0
-1238 -113 -177 0
1238 -113 177 0
1238 113 -177 0
-1239 -1234 0
-1239 1238 0
1239 1234 -1238 0
-1240 -1237 0
-1240 -1239 0
1240 1237 1239 0
-1241 114 178 0
-1241 -114 -178 0
1241 -114 178 0
1241 114 -178 0
-1242 1241 -1240 0
-1242 -1241 1240 0
1242 -1241 -1240 0
1242 1241 1240 0
-1243 114 0
-1243 178 0
1243 -114 -178 0
-1244 114 178 0
-1244 -114 -178 0
1244 -114 178 0
1244 114 -178 0
-1245 -1240 0
-1245 1244 0
1245 1240 -1244 0
-1246 -1243 0
-1246 -1245 0
1246 1243 1245 0
-1247 115 179 0
-1247 -115 -179 0
1247 -115 179 0
1247 115 -179 0
-1248 1247 -1246 0
-1248 -1247 1246 0
1248 -1247 -1246 0
1248 1247 1246 0
-1249 115 0
-1249 179 0
1249 -115 -179 0
-1250 115 179 0
-1250 -115 -179 0
1250 -115 179 0
1250 115 -179 0
-1251 -1246 0
-1251 1250 0
1251 1246 -1250 0
-1252 -1249 0
-1252 -1251 0
1252 1249 1251 0
-1253 116 180 0
-1253 -116 -180 0
1253 -116 180 0
1253 116 -180 0
-1254 1253 -1252 0
-1254 -1253 1252 0
1254 -1253 -1252 0
1254 1253 1252 0
-1255 116 0
-1255 180 0
1255 -116 -180 0
-1256 116 180 0
-1256 -116 -180 0
1256 -116 180 0
1256 116 -180 0
-1257 -1252 0
-1257 1256 0
1257 1252 -1256 0
-1258 -1255 0
-1258 -1257 0
1258 1255 1257 0
-1259 117 181 0
-1259 -117 -181 0
1259 -117 181 0
1259 117 -181 0
-1260 1259 -1258 0
-1260 -1259 1258 0
1260 -1259 -1258 0
1260 1259 1258 0
-1261 117 0
-1261 181 0
1261 -117 -181 0
-1262 117 181 0
-1262 -117 -181 0
1262 -117 181 0
1262 117 -181 0
-1263 -1258 0
-1263 1262 0
1263 1258 -1262 0
-1264 -1261 0
-1264 -1263 0
1264 1261 1263 0
-1265 118 182 0
-1265 -118 -182 0
1265 -118 182 0
1265 118 -182 0
-1266 1265 -1264 0
-1266 -1265 1264 0
1266 -1265 -1264 0
1266 1265 1264 0
-1267 118 0
-1267 182 0
1267 -118 -182 0
-1268 118 182 0
-1268 -118 -182 0
1268 -118 182 0
1268 118 -182 0
-1269 -1264 0
-1269 1268 0
1269 1264 -1268 0
-1270 -1267 0
-1270 -1269 0
1270 1267 1269 0
-1271 119 183 0
-1271 -119 -183 0
1271 -119 183 0
1271 119 -183 0
-1272 1271 -1270 0
-1272 -1271 1270 0
1272 -1271 -1270 0
1272 1271 1270 0
-1273 119 0
-1273 183 0
1273 -119 -183 0
-1274 119 183 0
-1274 -119 -183 0
1274 -119 183 0
1274 119 -183 0
-1275 -1270 0
-1275 1274 0
1275 1270 -1274 0
-1276 -1273 0
-1276 -1275 0
1276 1273 1275 0
-1277 120 184 0
-1277 -120 -184 0
1277 -120 184 0
1277 120 -184 0
-1278 1277 -1276 0
-1278 -1277 1276 0
1278 -1277 -1276 0
1278 1277 1276 0
-1279 120 0
-1279 184 0
1279 -120 -184 0
-1280 120 184 0
-1280 -120 -184 0
1280 -120 184 0
1280 120 -184 0
-1281 -1276 0
-1281 1280 0
1281 1276 -1280 0
-1282 -1279 0
-1282 -1281 0
1282 1279 1281 0
-1283 121 185 0
-1283 -121 -185 0
1283 -121 185 0
1283 121 -185 0
-1284 1283 -1282 0
-1284 -1283 1282 0
1284 -1283 -1282 0
1284 1283 1282 0
-1285 121 0
-1285 185 0
1285 -121 -185 0
-1286 121 185 0
-1286 -121 -185 0
1286 -121 185 0
1286 121 -185 0
-1287 -1282 0
-1287 1286 0
1287 1282 -1286 0
-1288 -1285 0
-1288 -1287 0
1288 1285 1287 0
-1289 122 186 0
-1289 -122 -186 0
1289 -122 186 0
1289 122 -186 0
-1290 1289 -1288 0
-1290 -1289 1288 0
1290 -1289 -1288 0
1290 1289 1288 0
-1291 122 0
-1291 186 0
1291 -122 -186 0
-1292 122 186 0
-1292 -122 -186 0
1292 -122 186 0
1292 122 -186 0
-1293 -1288 0
-1293 1292 0
1293 1288 -1292 0
-1294 -1291 0
-1294 -1293 0
1294 1291 1293 0
-1295 123 187 0
-1295 -123 -187 0
1295 -123 187 0
1295 123 -187 0
-1296 1295 -1294 0
-1296 -1295 1294 0
1296 -1295 -1294 0
1296 1295 1294 0
-1297 123 0
-1297 187 0
1297 -123 -187 0
-1298 123 187 0
-1298 -123 -187 0
1298 -123 187 0
1298 123 -187 0
-1299 -1294 0
-1299 1298 0
1299 1294 -1298 0
-1300 -1297 0
-1300 -1299 0
1300 1297 1299 0
-1301 124 188 0
-1301 -124 -188 0
1301 -124 188 0
1301 124 -188 0
-1302 1301 -1300 0
-1302 -1301 1300 0
1302 -1301 -1300 0
1302 1301 1300 0
-1303 124 0
-1303 188 0
1303 -124 -188 0
-1304 124 188 0
-1304 -124 -188 0
1304 -124 188 0
1304 124 -188 0
-1305 -1300 0
-1305 1304 0
1305 1300 -1304 0
-1306 -1303 0
-1306 -1305 0
1306 1303 1305 0
-1307 125 189 0
-1307 -125 -189 0
1307 -125 189 0
1307 125 -189 0
-1308 1307 -1306 0
-1308 -1307 1306 0
1308 -1307 -1306 0
1308 1307 1306 0
-1309 125 0
-1309 189 0
1309 -125 -189 0
-1310 125 189 0
-1310 -125 -189 0
1310 -125 189 0
1310 125 -189 0
-1311 -1306 0
-1311 1310 0
1311 1306 -1310 0
-1312 -1309 0
-1312 -1311 0
1312 1309 1311 0
-1313 126 190 0
-1313 -126 -190 0
1313 -126 190 0
1313 126 -190 0
-1314 1313 -1312 0
-1314 -1313 1312 0
1314 -1313 -1312 0
1314 1313 1312 0
-1315 126 0
-1315 190 0
1315 -126 -190 0
-1316 126 190 0
-1316 -126 -190 0
1316 -126 190 0
1316 126 -190 0
-1317 -1312 0
-1317 1316 0
1317 1312 -1316 0
-1318 -1315 0
-1318 -1317 0
1318 1315 1317 0
-1319 127 191 0
-1319 -127 -191 0
1319 -127 191 0
1319 127 -191 0
-1320 1319 -1318 0
-1320 -1319 1318 0
1320 -1319 -1318 0
1320 1319 1318 0
-1321 127 0
-1321 191 0
1321 -127 -191 0
-1322 127 191 0
-1322 -127 -191 0
1322 -127 191 0
1322 127 -191 0
-1323 -1318 0
-1323 1322 0
1323 1318 -1322 0
-1324 -1321 0
-1324 -1323 0
1324 1321 1323 0
-1325 128 192 0
-1325 -128 -192 0
1325 -128 192 0
1325 128 -192 0
-1326 1325 -1324 0
-1326 -1325 1324 0
1326 -1325 -1324 0
1326 1325 1324 0
-1327 128 0
-1327 192 0
1327 -128 -192 0
-1328 128 192 0
-1328 -128 -192 0
1328 -128 192 0
1328 128 -192 0
-1329 -1324 0
-1329 1328 0
1329 1324 -1328 0
-1330 -1327 0
-1330 -1329 0
1330 1327 1329 0
-1331 129 193 0
-1331 -129 -193 0
1331 -129 193 0
1331 129 -193 0
-1332 1331 -1330 0
-1332 -1331 1330 0
1332 -1331 -1330 0
1332 1331 1330 0
-1333 129 0
-1333 193 0
1333 -129 -193 0
-1334 129 193 0
-1334 -129 -193 0
1334 -129 193 0
1334 129 -193 0
-1335 -1330 0
-1335 1334 0
1335 1330 -1334 0
-1336 -1333 0
-1336 -1335 0
1336 1333 1335 0
-1337 2 956 0
-1337 -2 -956 0
1337 -2 956 0
1337 2 -956 0
-1338 2 0
-1338 956 0
1338 -2 -956 0
-1339 2 956 0
-1339 -2 -956 0
1339 -2 956 0
1339 2 -956 0
-1340 3 960 0
-1340 -3 -960 0
1340 -3 960 0
1340 3 -960 0
-1341 1340 1338 0
-1341 -1340 -1338 0
1341 -1340 1338 0
1341 1340 -1338 0
-1342 3 0
-1342 960 0
1342 -3 -960 0
-1343 3 960 0
-1343 -3 -960 0
1343 -3 960 0
1343 3 -960 0
-1344 1338 0
-1344 1343 0
1344 -1338 -1343 0
-1345 -1342 0
-1345 -1344 0
1345 1342 1344 0
-1346 4 966 0
-1346 -4 -966 0
1346 -4 966 0
1346 4 -966 0
-1347 1346 -1345 0
-1347 -1346 1345 0
1347 -1346 -1345 0
1347 1346 1345 0
-1348 4 0
-1348 966 0
1348 -4 -966 0
-1349 4 966 0
-1349 -4 -966 0
1349 -4 966 0
1349 4 -966 0
-1350 -1345 0
-1350 1349 0
1350 1345 -1349 0
-1351 -1348 0
-1351 -1350 0
1351 1348 1350 0
-1352 5 972 0
-1352 -5 -972 0
1352 -5 972 0
1352 5 -972 0
-1353 1352 -1351 0
-1353 -1352 1351 0
1353 -1352 -1351 0
1353 1352 1351 0
-1354 5 0
-1354 972 0
1354 -5 -972 0
-1355 5 972 0
-1355 -5 -972 0
1355 -5 972 0
1355 5 -972 0
-1356 -1351 0
-1356 1355 0
1356 1351 -1355 0
-1357 -1354 0
-1357 -1356 0
1357 1354 1356 0
-1358 6 978 0
-1358 -6 -978 0
1358 -6 978 0
1358 6 -978 0
-1359 1358 -1357 0
-1359 -1358 1357 0
1359 -1358 -1357 0
1359 1358 1357 0
-1360 6 0
-1360 978 0
1360 -6 -978 0
-1361 6 978 0
-1361 -6 -978 0
1361 -6 978 0
1361 6 -978 0
-1362 -1357 0
-1362 1361 0
1362 1357 -1361 0
-1363 -1360 0
-1363 -1362 0
1363 1360 1362 0
-1364 7 984 0
-1364 -7 -984 0
1364 -7 984 0
1364 7 -984 0
-1365 1364 -1363 0
-1365 -1364 1363 0
1365 -1364 -1363 0
1365 1364 1363 0
-1366 7 0
-1366 984 0
1366 -7 -984 0
-1367 7 984 0
-1367 -7 -984 0
1367 -7 984 0
1367 7 -984 0
-1368 -1363 0
-1368 1367 0
1368 1363 -1367 0
-1369 -1366 0
-1369 -1368 0
1369 1366 1368 0
-1370 8 990 0
-1370 -8 -990 0
1370 -8 990 0
1370 8 -990 0
-1371 1370 -1369 0
-1371 -1370 1369 0
1371 -1370 -1369 0
1371 1370 1369 0
-1372 8 0
-1372 990 0
1372 -8 -990 0
-1373 8 990 0
-1373 -8 -990 0
1373 -8 990 0
1373 8 -990 0
-1374 -1369 0
-1374 1373 0
1374 1369 -1373 0
-1375 -1372 0
-1375 -1374 0
1375 1372 1374 0
-1376 9 996 0
-1376 -9 -996 0
1376 -9 996 0
1376 9 -996 0
-1377 1376 -1375 0
-1377 -1376 1375 0
1377 -1376 -1375 0
1377 1376 1375 0
-1378 9 0
-1378 996 0
1378 -9 -996 0
-1379 9 996 0
-1379 -9 -996 0
1379 -9 996 0
1379 9 -996 0
-1380 -1375 0
-1380 1379 0
1380 1375 -1379 0
-1381 -1378 0
-1381 -1380 0
1381 1378 1380 0
-1382 10 1002 0
-1382 -10 -1002 0
1382 -10 1002 0
1382 10 -1002 0
-1383 1382 -1381 0
-1383 -1382 1381 0
1383 -1382 -1381 0
1383 1382 1381 0
-1384 10 0
-1384 1002 0
1384 -10 -1002 0
-1385 10 1002 0
-1385 -10 -1002 0
1385 -10 1002 0
1385 10 -1002 0
-1386 -1381 0
-1386 1385 0
1386 1381 -1385 0
-1387 -1384 0
-1387 -1386 0
1387 1384 1386 0
-1388 11 1008 0
-1388 -11 -1008 0
1388 -11 1008 0
1388 11 -1008 0
-1389 1388 -1387 0
-1389 -1388 1387 0
1389 -1388 -1387 0
1389 1388 1387 0
-1390 11 0
-1390 1008 0
1390 -11 -1008 0
-1391 11 1008 0
-1391 -11 -1008 0
1391 -11 1008 0
1391 11 -1008 0
-1392 -1387 0
-1392 1391 0
1392 1387 -1391 0
-1393 -1390 0
-1393 -1392 0
1393 1390 1392 0
-1394 12 1014 0
-1394 -12 -1014 0
1394 -12 1014 0
1394 12 -1014 0
-1395 1394 -1393 0
-1395 -1394 1393 0
1395 -1394 -1393 0
1395 1394 1393 0
-1396 12 0
-1396 1014 0
1396 -12 -1014 0
-1397 12 1014 0
-1397 -12 -1014 0
1397 -12 1014 0
1397 12 -1014 0
-1398 -1393 0
-1398 1397 0
1398 1393 -1397 0
-1399 -1396 0
-1399 -1398 0
1399 1396 1398 0
-1400 13 1020 0
-1400 -13 -1020 0
1400 -13 1020 0
1400 13 -1020 0
-1401 1400 -1399 0
-1401 -1400 1399 0
1401 -1400 -1399 0
1401 1400 1399 0
-1402 13 0
-1402 1020 0
1402 -13 -1020 0
-1403 13 1020 0
-1403 -13 -1020 0
1403 -13 1020 0
1403 13 -1020 0
-1404 -1399 0
-1404 1403 0
1404 1399 -1403 0
-1405 -1402 0
-1405 -1404 0
1405 1402 1404 0
-1406 14 1026 0
-1406 -14 -1026 0
1406 -14 1026 0
1406 14 -1026 0
-1407 1406 -1405 0
-1407 -1406 1405 0
1407 -1406 -1405 0
1407 1406 1405 0
-1408 14 0
-1408 1026 0
1408 -14 -1026 0
-1409 14 1026 0
-1409 -14 -1026 0
1409 -14 1026 0
1409 14 -1026 0
-1410 -1405 0
-1410 1409 0
1410 1405 -1409 0
-1411 -1408 0
-1411 -1410 0
1411 1408 1410 0
-1412 15 1032 0
-1412 -15 -1032 0
1412 -15 1032 0
1412 15 -1032 0
-1413 1412 -1411 0
-1413 -1412 1411 0
1413 -1412 -1411 0
1413 1412 1411 0
-1414 15 0
-1414 1032 0
1414 -15 -1032 0
-1415 15 1032 0
-1415 -15 -1032 0
1415 -15 1032 0
1415 15 -1032 0
-1416 -1411 0
-1416 1415 0
1416 1411 -1415 0
-1417 -1414 0
-1417 -1416 0
1417 1414 1416 0
-1418 16 1038 0
-1418 -16 -1038 0
1418 -16 1038 0
1418 16 -1038 0
-1419 1418 -1417 0
-1419 -1418 1417 0
1419 -1418 -1417 0
1419 1418 1417 0
-1420 16 0
-1420 1038 0
1420 -16 -1038 0
-1421 16 1038 0
-1421 -16 -1038 0
1421 -16 1038 0
1421 16 -1038 0
-1422 -1417 0
-1422 1421 0
1422 1417 -1421 0
-1423 -1420 0
-1423 -1422 0
1423 1420 1422 0
-1424 17 1044 0
-1424 -17 -1044 0
1424 -17 1044 0
1424 17 -1044 0
-1425 1424 -1423 0
-1425 -1424 1423 0
1425 -1424 -1423 0
1425 1424 1423 0
-1426 17 0
-1426 1044 0
1426 -17 -1044 0
-1427 17 1044 0
-1427 -17 -1044 0
1427 -17 1044 0
1427 17 -1044 0
-1428 -1423 0
-1428 1427 0
1428 1423 -1427 0
-1429 -1426 0
-1429 -1428 0
1429 1426 1428 0
-1430 18 1050 0
-1430 -18 -1050 0
1430 -18 1050 0
1430 18 -1050 0
-1431 1430 -1429 0
-1431 -1430 1429 0
1431 -1430 -1429 0
1431 1430 1429 0
-1432 18 0
-1432 1050 0
1432 -18 -1050 0
-1433 18 1050 0
-1433 -18 -1050 0
1433 -18 1050 0
1433 18 -1050 0
-1434 -1429 0
-1434 1433 0
1434 1429 -1433 0
-1435 -1432 0
-1435 -1434 0
1435 1432 1434 0
-1436 19 1056 0
-1436 -19 -1056 0
1436 -19 1056 0
1436 19 -1056 0
-1437 1436 -1435 0
-1437 -1436 1435 0
1437 -1436 -1435 0
1437 1436 1435 0
-1438 19 0
-1438 1056 0
1438 -19 -1056 0
-1439 19 1056 0
-1439 -19 -1056 0
1439 -19 1056 0
1439 19 -1056 0
-1440 -1435 0
-1440 1439 0
1440 1435 -1439 0
-1441 -1438 0
-1441 -1440 0
1441 1438 1440 0
-1442 20 1062 0
-1442 -20 -1062 0
1442 -20 1062 0
1442 20 -1062 0
-1443 1442 -1441 0
-1443 -1442 1441 0
1443 -1442 -1441 0
1443 1442 1441 0
-1444 20 0
-1444 1062 0
1444 -20 -1062 0
-1445 20 1062 0
-1445 -20 -1062 0
1445 -20 1062 0
1445 20 -1062 0
-1446 -1441 0
-1446 1445 0
1446 1441 -1445 0
-1447 -1444 0
-1447 -1446 0
1447 1444 1446 0
-1448 21 1068 0
-1448 -21 -1068 0
1448 -21 1068 0
1448 21 -1068 0
-1449 1448 -1447 0
-1449 -1448 1447 0
1449 -1448 -1447 0
1449 1448 1447 0
-1450 21 0
-1450 1068 0
1450 -21 -1068 0
-1451 21 1068 0
-1451 -21 -1068 0
1451 -21 1068 0
1451 21 -1068 0
-1452 -1447 0
-1452 1451 0
1452 1447 -1451 0
-1453 -1450 0
-1453 -1452 0
1453 1450 1452 0
-1454 22 1074 0
-1454 -22 -1074 0
1454 -22 1074 0
1454 22 -1074 0
-1455 1454 -1453 0
-1455 -1454 1453 0
1455 -1454 -1453 0
1455 1454 1453 0
-1456 22 0
-1456 1074 0
1456 -22 -1074 0
-1457 22 1074 0
-1457 -22 -1074 0
1457 -22 1074 0
1457 22 -1074 0
-1458 -1453 0
-1458 1457 0
1458 1453 -1457 0
-1459 -1456 0
-1459 -1458 0
1459 1456 1458 0
-1460 23 1080 0
-1460 -23 -1080 0
1460 -23 1080 0
1460 23 -1080 0
-1461 1460 -1459 0
-1461 -1460 1459 0
1461 -1460 -1459 0
1461 1460 1459 0
-1462 23 0
-1462 1080 0
1462 -23 -1080 0
-1463 23 1080 0
-1463 -23 -1080 0
1463 -23 1080 0
1463 23 -1080 0
-1464 -1459 0
-1464 1463 0
1464 1459 -1463 0
-1465 -1462 0
-1465 -1464 0
1465 1462 1464 0
-1466 24 1086 0
-1466 -24 -1086 0
1466 -24 1086 0
1466 24 -1086 0
-1467 1466 -1465 0
-1467 -1466 1465 0
1467 -1466 -1465 0
1467 1466 1465 0
-1468 24 0
-1468 1086 0
1468 -24 -1086 0
-1469 24 1086 0
-1469 -24 -1086 0
1469 -24 1086 0
1469 24 -1086 0
-1470 -1465 0
-1470 1469 0
1470 1465 -1469 0
-1471 -1468 0
-1471 -1470 0
1471 1468 1470 0
-1472 25 1092 0
-1472 -25 -1092 0
1472 -25 1092 0
1472 25 -1092 0
-1473 1472 -1471 0
-1473 -1472 1471 0
1473 -1472 -1471 0
1473 1472 1471 0
-1474 25 0
-1474 1092 0
1474 -25 -1092 0
-1475 25 1092 0
-1475 -25 -1092 0
1475 -25 1092 0
1475 25 -1092 0
-1476 -1471 0
-1476 1475 0
1476 1471 -1475 0
-1477 -1474 0
-1477 -1476 0
1477 1474 1476 0
-1478 26 1098 0
-1478 -26 -1098 0
1478 -26 1098 0
1478 26 -1098 0
-1479 1478 -1477 0
-1479 -1478 1477 0
1479 -1478 -1477 0
1479 1478 1477 0
-1480 26 0
-1480 1098 0
1480 -26 -1098 0
-1481 26 1098 0
-1481 -26 -1098 0
1481 -26 1098 0
1481 26 -1098 0
-1482 -1477 0
-1482 1481 0
1482 1477 -1481 0
-1483 -1480 0
-1483 -1482 0
1483 1480 1482 0
-1484 27 1104 0
-1484 -27 -1104 0
1484 -27 1104 0
1484 27 -1104 0
-1485 1484 -1483 0
-1485 -1484 1483 0
1485 -1484 -1483 0
1485 1484 1483 0
-1486 27 0
-1486 1104 0
1486 -27 -1104 0
-1487 27 1104 0
-1487 -27 -1104 0
1487 -27 1104 0
1487 27 -1104 0
-1488 -1483 0
-1488 1487 0
1488 1483 -1487 0
-1489 -1486 0
-1489 -1488 0
1489 1486 1488 0
-1490 28 1110 0
-1490 -28 -1110 0
1490 -28 1110 0
1490 28 -1110 0
-1491 1490 -1489 0
-1491 -1490 1489 0
1491 -1490 -1489 0
1491 1490 1489 0
-1492 28 0
-1492 1110 0
1492 -28 -1110 0
-1493 28 1110 0
-1493 -28 -1110 0
1493 -28 1110 0
1493 28 -1110 0
-1494 -1489 0
-1494 1493 0
1494 1489 -1493 0
-1495 -1492 0
-1495 -1494 0
1495 1492 1494 0
-1496 29 1116 0
-1496 -29 -1116 0
1496 -29 1116 0
1496 29 -1116 0
-1497 1496 -1495 0
-1497 -1496 1495 0
1497 -1496 -1495 0
1497 1496 1495 0
-1498 29 0
-1498 1116 0
1498 -29 -1116 0
-1499 29 1116 0
-1499 -29 -1116 0
1499 -29 1116 0
1499 29 -1116 0
-1500 -1495 0
-1500 1499 0
1500 1495 -1499 0
-1501 -1498 0
-1501 -1500 0
1501 1498 1500 0
-1502 30 1122 0
-1502 -30 -1122 0
1502 -30 1122 0
1502 30 -1122 0
-1503 1502 -1501 0
-1503 -1502 1501 0
1503 -1502 -1501 0
1503 1502 1501 0
-1504 30 0
-1504 1122 0
1504 -30 -1122 0
-1505 30 1122 0
-1505 -30 -1122 0
1505 -30 1122 0
1505 30 -1122 0
-1506 -1501 0
-1506 1505 0
1506 1501 -1505 0
-1507 -1504 0
-1507 -1506 0
1507 1504 1506 0
-1508 31 1128 0
-1508 -31 -1128 0
1508 -31 1128 0
1508 31 -1128 0
-1509 1508 -1507 0
-1509 -1508 1507 0
1509 -1508 -1507 0
1509 1508 1507 0
-1510 31 0
-1510 1128 0
1510 -31 -1128 0
-1511 31 1128 0
-1511 -31 -1128 0
1511 -31 1128 0
1511 31 -1128 0
-1512 -1507 0
-1512 1511 0
1512 1507 -1511 0
-1513 -1510 0
-1513 -1512 0
1513 1510 1512 0
-1514 32 1134 0
-1514 -32 -1134 0
1514 -32 1134 0
1514 32 -1134 0
-1515 1514 -1513 0
-1515 -1514 1513 0
1515 -1514 -1513 0
1515 1514 1513 0
-1516 32 0
-1516 1134 0
1516 -32 -1134 0
-1517 32 1134 0
-1517 -32 -1134 0
1517 -32 1134 0
1517 32 -1134 0
-1518 -1513 0
-1518 1517 0
1518 1513 -1517 0
-1519 -1516 0
-1519 -1518 0
1519 1516 1518 0
-1520 33 1140 0
-1520 -33 -1140 0
1520 -33 1140 0
1520 33 -1140 0
-1521 1520 -1519 0
-1521 -1520 1519 0
1521 -1520 -1519 0
1521 1520 1519 0
-1522 33 0
-1522 1140 0
1522 -33 -1140 0
-1523 33 1140 0
-1523 -33 -1140 0
1523 -33 1140 0
1523 33 -1140 0
-1524 -1519 0
-1524 1523 0
1524 1519 -1523 0
-1525 -1522 0
-1525 -1524 0
1525 1522 1524 0
-1526 34 1146 0
-1526 -34 -1146 0
1526 -34 1146 0
1526 34 -1146 0
-1527 1526 -1525 0
-1527 -1526 1525 0
1527 -1526 -1525 0
1527 1526 1525 0
-1528 34 0
-1528 1146 0
1528 -34 -1146 0
-1529 34 1146 0
-1529 -34 -1146 0
1529 -34 1146 0
1529 34 -1146 0
-1530 -1525 0
-1530 1529 0
1530 1525 -1529 0
-1531 -1528 0
-1531 -1530 0
1531 1528 1530 0
-1532 35 1152 0
-1532 -35 -1152 0
1532 -35 1152 0
1532 35 -1152 0
-1533 1532 -1531 0
-1533 -1532 1531 0
1533 -1532 -1531 0
1533 1532 1531 0
-1534 35 0
-1534 1152 0
1534 -35 -1152 0
-1535 35 1152 0
-1535 -35 -1152 0
1535 -35 1152 0
1535 35 -1152 0
-1536 -1531 0
-1536 1535 0
1536 1531 -1535 0
-1537 -1534 0
-1537 -1536 0
1537 1534 1536 0
-1538 36 1158 0
-1538 -36 -1158 0
1538 -36 1158 0
1538 36 -1158 0
-1539 1538 -1537 0
-1539 -1538 1537 0
1539 -1538 -1537 0
1539 1538 1537 0
-1540 36 0
-1540 1158 0
1540 -36 -1158 0
-1541 36 1158 0
-1541 -36 -1158 0
1541 -36 1158 0
1541 36 -1158 0
-1542 -1537 0
-1542 1541 0
1542 1537 -1541 0
-1543 -1540 0
-1543 -1542 0
1543 1540 1542 0
-1544 37 1164 0
-1544 -37 -1164 0
1544 -37 1164 0
1544 37 -1164 0
-1545 1544 -1543 0
-1545 -1544 1543 0
1545 -1544 -1543 0
1545 1544 1543 0
-1546 37 0
-1546 1164 0
1546 -37 -1164 0
-1547 37 1164 0
-1547 -37 -1164 0
1547 -37 1164 0
1547 37 -1164 0
-1548 -1543 0
-1548 1547 0
1548 1543 -1547 0
-1549 -1546 0
-1549 -1548 0
1549 1546 1548 0
-1550 38 1170 0
-1550 -38 -1170 0
1550 -38 1170 0
1550 38 -1170 0
-1551 1550 -1549 0
-1551 -1550 1549 0
1551 -1550 -1549 0
1551 1550 1549 0
-1552 38 0
-1552 1170 0
1552 -38 -1170 0
-1553 38 1170 0
-1553 -38 -1170 0
1553 -38 1170 0
1553 38 -1170 0
-1554 -1549 0
-1554 1553 0
1554 1549 -1553 0
-1555 -1552 0
-1555 -1554 0
1555 1552 1554 0
-1556 39 1176 0
-1556 -39 -1176 0
1556 -39 1176 0
1556 39 -1176 0
-1557 1556 -1555 0
-1557 -1556 1555 0
1557 -1556 -1555 0
1557 1556 1555 0
-1558 39 0
-1558 1176 0
1558 -39 -1176 0
-1559 39 1176 0
-1559 -39 -1176 0
1559 -39 1176 0
1559 39 -1176 0
-1560 -1555 0
-1560 1559 0
1560 1555 -1559 0
-1561 -1558 0
-1561 -1560 0
1561 1558 1560 0
-1562 40 1182 0
-1562 -40 -1182 0
1562 -40 1182 0
1562 40 -1182 0
-1563 1562 -1561 0
-1563 -1562 1561 0
1563 -1562 -1561 0
1563 1562 1561 0
-1564 40 0
-1564 1182 0
1564 -40 -1182 0
-1565 40 1182 0
-1565 -40 -1182 0
1565 -40 1182 0
1565 40 -1182 0
-1566 -1561 0
-1566 1565 0
1566 1561 -1565 0
-1567 -1564 0
-1567 -1566 0
1567 1564 1566 0
-1568 41 1188 0
-1568 -41 -1188 0
1568 -41 1188 0
1568 41 -1188 0
-1569 1568 -1567 0
-1569 -1568 1567 0
1569 -1568 -1567 0
1569 1568 1567 0
-1570 41 0
-1570 1188 0
1570 -41 -1188 0
-1571 41 1188 0
-1571 -41 -1188 0
1571 -41 1188 0
1571 41 -1188 0
-1572 -1567 0
-1572 1571 0
1572 1567 -1571 0
-1573 -1570 0
-1573 -1572 0
1573 1570 1572 0
-1574 42 1194 0
-1574 -42 -1194 0
1574 -42 1194 0
1574 42 -1194 0
-1575 1574 -1573 0
-1575 -1574 1573 0
1575 -1574 -1573 0
1575 1574 1573 0
-1576 42 0
-1576 1194 0
1576 -42 -1194 0
-1577 42 1194 0
-1577 -42 -1194 0
1577 -42 1194 0
1577 42 -1194 0
-1578 -1573 0
-1578 1577 0
1578 1573 -1577 0
-1579 -1576 0
-1579 -1578 0
1579 1576 1578 0
-1580 43 1200 0
-1580 -43 -1200 0
1580 -43 1200 0
1580 43 -1200 0
-1581 1580 -1579 0
-1581 -1580 1579 0
1581 -1580 -1579 0
1581 1580 1579 0
-1582 43 0
-1582 1200 0
1582 -43 -1200 0
-1583 43 1200 0
-1583 -43 -1200 0
1583 -43 1200 0
1583 43 -1200 0
-1584 -1579 0
-1584 1583 0
1584 1579 -1583 0
-1585 -1582 0
-1585 -1584 0
1585 1582 1584 0
-1586 44 1206 0
-1586 -44 -1206 0
1586 -44 1206 0
1586 44 -1206 0
-1587 1586 -1585 0
-1587 -1586 1585 0
1587 -1586 -1585 0
1587 1586 1585 0
-1588 44 0
-1588 1206 0
1588 -44 -1206 0
-1589 44 1206 0
-1589 -44 -1206 0
1589 -44 1206 0
1589 44 -1206 0
-1590 -1585 0
-1590 1589 0
1590 1585 -1589 0
-1591 -1588 0
-1591 -1590 0
1591 1588 1590 0
-1592 45 1212 0
-1592 -45 -1212 0
1592 -45 1212 0
1592 45 -1212 0
-1593 1592 -1591 0
-1593 -1592 1591 0
1593 -1592 -1591 0
1593 1592 1591 0
-1594 45 0
-1594 1212 0
1594 -45 -1212 0
-1595 45 1212 0
-1595 -45 -1212 0
1595 -45 1212 0
1595 45 -1212 0
-1596 -1591 0
-1596 1595 0
1596 1591 -1595 0
-1597 -1594 0
-1597 -1596 0
1597 1594 1596 0
-1598 46 1218 0
-1598 -46 -1218 0
1598 -46 1218 0
1598 46 -1218 0
-1599 1598 -1597 0
-1599 -1598 1597 0
1599 -1598 -1597 0
1599 1598 1597 0
-1600 46 0
-1600 1218 0
1600 -46 -1218 0
-1601 46 1218 0
-1601 -46 -1218 0
1601 -46 1218 0
1601 46 -1218 0
-1602 -1597 0
-1602 1601 0
1602 1597 -1601 0
-1603 -1600 0
-1603 -1602 0
1603 1600 1602 0
-1604 47 1224 0
-1604 -47 -1224 0
1604 -47 1224 0
1604 47 -1224 0
-1605 1604 -1603 0
-1605 -1604 1603 0
1605 -1604 -1603 0
1605 1604 1603 0
-1606 47 0
-1606 1224 0
1606 -47 -1224 0
-1607 47 1224 0
-1607 -47 -1224 0
1607 -47 1224 0
1607 47 -1224 0
-1608 -1603 0
-1608 1607 0
1608 1603 -1607 0
-1609 -1606 0
-1609 -1608 0
1609 1606 1608 0
-1610 48 1230 0
-1610 -48 -1230 0
1610 -48 1230 0
1610 48 -1230 0
-1611 1610 -1609 0
-1611 -1610 1609 0
1611 -1610 -1609 0
1611 1610 1609 0
-1612 48 0
-1612 1230 0
1612 -48 -1230 0
-1613 48 1230 0
-1613 -48 -1230 0
1613 -48 1230 0
1613 48 -1230 0
-1614 -1609 0
-1614 1613 0
1614 1609 -1613 0
-1615 -1612 0
-1615 -1614 0
1615 1612 1614 0
-1616 49 1236 0
-1616 -49 -1236 0
1616 -49 1236 0
1616 49 -1236 0
-1617 1616 -1615 0
-1617 -1616 1615 0
1617 -1616 -1615 0
1617 1616 1615 0
-1618 49 0
-1618 1236 0
1618 -49 -1236 0
-1619 49 1236 0
-1619 -49 -1236 0
1619 -49 1236 0
1619 49 -1236 0
-1620 -1615 0
-1620 1619 0
1620 1615 -1619 0
-1621 -1618 0
-1621 -1620 0
1621 1618 1620 0
-1622 50 1242 0
-1622 -50 -1242 0
1622 -50 1242 0
1622 50 -1242 0
-1623 1622 -1621 0
-1623 -1622 1621 0
1623 -1622 -1621 0
1623 1622 1621 0
-1624 50 0
-1624 1242 0
1624 -50 -1242 0
-1625 50 1242 0
-1625 -50 -1242 0
1625 -50 1242 0
1625 50 -1242 0
-1626 -1621 0
-1626 1625 0
1626 1621 -1625 0
-1627 -1624 0
-1627 -1626 0
1627 1624 1626 0
-1628 51 1248 0
-1628 -51 -1248 0
1628 -51 1248 0
1628 51 -1248 0
-1629 1628 -1627 0
-1629 -1628 1627 0
1629 -1628 -1627 0
1629 1628 1627 0
-1630 51 0
-1630 1248 0
1630 -51 -1248 0
-1631 51 1248 0
-1631 -51 -1248 0
1631 -51 1248 0
1631 51 -1248 0
-1632 -1627 0
-1632 1631 0
1632 1627 -1631 0
-1633 -1630 0
-1633 -1632 0
1633 1630 1632 0
-1634 52 1254 0
-1634 -52 -1254 0
1634 -52 1254 0
1634 52 -1254 0
-1635 1634 -1633 0
-1635 -1634 1633 0
1635 -1634 -1633 0
1635 1634 1633 0
-1636 52 0
-1636 1254 0
1636 -52 -1254 0
-1637 52 1254 0
-1637 -52 -1254 0
1637 -52 1254 0
1637 52 -1254 0
-1638 -1633 0
-1638 1637 0
1638 1633 -1637 0
-1639 -1636 0
-1639 -1638 0
1639 1636 1638 0
-1640 53 1260 0
-1640 -53 -1260 0
1640 -53 1260 0
1640 53 -1260 0
-1641 1640 -1639 0
-1641 -1640 1639 0
1641 -1640 -1639 0
1641 1640 1639 0
-1642 53 0
-1642 1260 0
1642 -53 -1260 0
-1643 53 1260 0
-1643 -53 -1260 0
1643 -53 1260 0
1643 53 -1260 0
-1644 -1639 0
-1644 1643 0
1644 1639 -1643 0
-1645 -1642 0
-1645 -1644 0
1645 1642 1644 0
-1646 54 1266 0
-1646 -54 -1266 0
1646 -54 1266 0
1646 54 -1266 0
-1647 1646 -1645 0
-1647 -1646 1645 0
1647 -1646 -1645 0
1647 1646 1645 0
-1648 54 0
-1648 1266 0
1648 -54 -1266 0
-1649 54 1266 0
-1649 -54 -1266 0
1649 -54 1266 0
1649 54 -1266 0
-1650 -1645 0
-1650 1649 0
1650 1645 -1649 0
-1651 -1648 0
-1651 -1650 0
1651 1648 1650 0
-1652 55 1272 0
-1652 -55 -1272 0
1652 -55 1272 0
1652 55 -1272 0
-1653 1652 -1651 0
-1653 -1652 1651 0
1653 -1652 -1651 0
1653 1652 1651 0
-1654 55 0
-1654 1272 0
1654 -55 -1272 0
-1655 55 1272 0
-1655 -55 -1272 0
1655 -55 1272 0
1655 55 -1272 0
-1656 -1651 0
-1656 1655 0
1656 1651 -1655 0
-1657 -1654 0
-1657 -1656 0
1657 1654 1656 0
-1658 56 1278 0
-1658 -56 -1278 0
1658 -56 1278 0
1658 56 -1278 0
-1659 1658 -1657 0
-1659 -1658 1657 0
1659 -1658 -1657 0
1659 1658 1657 0
-1660 56 0
-1660 1278 0
1660 -56 -1278 0
-1661 56 1278 0
-1661 -56 -1278 0
1661 -56 1278 0
1661 56 -1278 0
-1662 -1657 0
-1662 1661 0
1662 1657 -1661 0
-1663 -1660 0
-1663 -1662 0
1663 1660 1662 0
-1664 57 1284 0
-1664 -57 -1284 0
1664 -57 1284 0
1664 57 -1284 0
-1665 1664 -1663 0
-1665 -1664 1663 0
1665 -1664 -1663 0
1665 1664 1663 0
-1666 57 0
-1666 1284 0
1666 -57 -1284 0
-1667 57 1284 0
-1667 -57 -1284 0
1667 -57 1284 0
1667 57 -1284 0
-1668 -1663 0
-1668 1667 0
1668 1663 -1667 0
-1669 -1666 0
-1669 -1668 0
1669 1666 1668 0
-1670 58 1290 0
-1670 -58 -1290 0
1670 -58 1290 0
1670 58 -1290 0
-1671 1670 -1669 0
-1671 -1670 1669 0
1671 -1670 -1669 0
1671 1670 1669 0
-1672 58 0
-1672 1290 0
1672 -58 -1290 0
-1673 58 1290 0
-1673 -58 -1290 0
1673 -58 1290 0
1673 58 -1290 0
-1674 -1669 0
-1674 1673 0
1674 1669 -1673 0
-1675 -1672 0
-1675 -1674 0
1675 1672 1674 0
-1676 59 1296 0
-1676 -59 -1296 0
1676 -59 1296 0
1676 59 -1296 0
-1677 1676 -1675 0
-1677 -1676 1675 0
1677 -1676 -1675 0
1677 1676 1675 0
-1678 59 0
-1678 1296 0
1678 -59 -1296 0
-1679 59 1296 0
-1679 -59 -1296 0
1679 -59 1296 0
1679 59 -1296 0
-1680 -1675 0
-1680 1679 0
1680 1675 -1679 0
-1681 -1678 0
-1681 -1680 0
1681 1678 1680 0
-1682 60 1302 0
-1682 -60 -1302 0
1682 -60 1302 0
1682 60 -1302 0
-1683 1682 -1681 0
-1683 -1682 1681 0
1683 -1682 -1681 0
1683 1682 1681 0
-1684 60 0
-1684 1302 0
1684 -60 -1302 0
-1685 60 1302 0
-1685 -60 -1302 0
1685 -60 1302 0
1685 60 -1302 0
-1686 -1681 0
-1686 1685 0
1686 1681 -1685 0
-1687 -1684 0
-1687 -1686 0
1687 1684 1686 0
-1688 61 1308 0
-1688 -61 -1308 0
1688 -61 1308 0
1688 61 -1308 0
-1689 1688 -1687 0
-1689 -1688 1687 0
1689 -1688 -1687 0
1689 1688 1687 0
-1690 61 0
-1690 1308 0
1690 -61 -1308 0
-1691 61 1308 0
-1691 -61 -1308 0
1691 -61 1308 0
1691 61 -1308 0
-1692 -1687 0
-1692 1691 0
1692 1687 -1691 0
-1693 -1690 0
-1693 -1692 0
1693 1690 1692 0
-1694 62 1314 0
-1694 -62 -1314 0
1694 -62 1314 0
1694 62 -1314 0
-1695 1694 -1693 0
-1695 -1694 1693 0
1695 -1694 -1693 0
1695 1694 1693 0
-1696 62 0
-1696 1314 0
1696 -62 -1314 0
-1697 62 1314 0
-1697 -62 -1314 0
1697 -62 1314 0
1697 62 -1314 0
-1698 -1693 0
-1698 1697 0
1698 1693 -1697 0
-1699 -1696 0
-1699 -1698 0
1699 1696 1698 0
-1700 63 1320 0
-1700 -63 -1320 0
1700 -63 1320 0
1700 63 -1320 0
-1701 1700 -1699 0
-1701 -1700 1699 0
1701 -1700 -1699 0
1701 1700 1699 0
-1702 63 0
-1702 1320 0
1702 -63 -1320 0
-1703 63 1320 0
-1703 -63 -1320 0
1703 -63 1320 0
1703 63 -1320 0
-1704 -1699 0
-1704 1703 0
1704 1699 -1703 0
-1705 -1702 0
-1705 -1704 0
1705 1702 1704 0
-1706 64 1326 0
-1706 -64 -1326 0
1706 -64 1326 0
1706 64 -1326 0
-1707 1706 -1705 0
-1707 -1706 1705 0
1707 -1706 -1705 0
1707 1706 1705 0
-1708 64 0
-1708 1326 0
1708 -64 -1326 0
-1709 64 1326 0
-1709 -64 -1326 0
1709 -64 1326 0
1709 64 -1326 0
-1710 -1705 0
-1710 1709 0
1710 1705 -1709 0
-1711 -1708 0
-1711 -1710 0
1711 1708 1710 0
-1712 65 1332 0
-1712 -65 -1332 0
1712 -65 1332 0
1712 65 -1332 0
-1713 1712 -1711 0
-1713 -1712 1711 0
1713 -1712 -1711 0
1713 1712 1711 0
-1714 65 0
-1714 1332 0
1714 -65 -1332 0
-1715 65 1332 0
-1715 -65 -1332 0
1715 -65 1332 0
1715 65 -1332 0
-1716 -1711 0
-1716 1715 0
1716 1711 -1715 0
-1717 -1714 0
-1717 -1716 0
1717 1714 1716 0
-1718 575 1337 0
-1718 -575 -1337 0
1718 -575 1337 0
1718 575 -1337 0
-1719 579 1341 0
-1719 -579 -1341 0
1719 -579 1341 0
1719 579 -1341 0
-1720 585 1347 0
-1720 -585 -1347 0
1720 -585 1347 0
1720 585 -1347 0
-1721 591 1353 0
-1721 -591 -1353 0
1721 -591 1353 0
1721 591 -1353 0
-1722 597 1359 0
-1722 -597 -1359 0
1722 -597 1359 0
1722 597 -1359 0
-1723 603 1365 0
-1723 -603 -1365 0
1723 -603 1365 0
1723 603 -1365 0
-1724 609 1371 0
-1724 -609 -1371 0
1724 -609 1371 0
1724 609 -1371 0
-1725 615 1377 0
-1725 -615 -1377 0
1725 -615 1377 0
1725 615 -1377 0
-1726 621 1383 0
-1726 -621 -1383 0
1726 -621 1383 0
1726 621 -1383 0
-1727 627 1389 0
-1727 -627 -1389 0
1727 -627 1389 0
1727 627 -1389 0
-1728 633 1395 0
-1728 -633 -1395 0
1728 -633 1395 0
1728 633 -1395 0
-1729 639 1401 0
-1729 -639 -1401 0
1729 -639 1401 0
1729 639 -1401 0
-1730 645 1407 0
-1730 -645 -1407 0
1730 -645 1407 0
1730 645 -1407 0
-1731 651 1413 0
-1731 -651 -1413 0
1731 -651 1413 0
1731 651 -1413 0
-1732 657 1419 0
-1732 -657 -1419 0
1732 -657 1419 0
1732 657 -1419 0
-1733 663 1425 0
-1733 -663 -1425 0
1733 -663 1425 0
1733 663 -1425 0
-1734 669 1431 0
-1734 -669 -1431 0
1734 -669 1431 0
1734 669 -1431 0
-1735 675 1437 0
-1735 -675 -1437 0
1735 -675 1437 0
1735 675 -1437 0
-1736 681 1443 0
-1736 -681 -1443 0
1736 -681 1443 0
1736 681 -1443 0
-1737 687 1449 0
-1737 -687 -1449 0
1737 -687 1449 0
1737 687 -1449 0
-1738 693 1455 0
-1738 -693 -1455 0
1738 -693 1455 0
1738 693 -1455 0
-1739 699 1461 0
-1739 -699 -1461 0
1739 -699 1461 0
1739 699 -1461 0
-1740 705 1467 0
-1740 -705 -1467 0
1740 -705 1467 0
1740 705 -1467 0
-1741 711 1473 0
-1741 -711 -1473 0
1741 -711 1473 0
1741 711 -1473 0
-1742 717 1479 0
-1742 -717 -1479 0
1742 -717 1479 0
1742 717 -1479 0
-1743 723 1485 0
-1743 -723 -1485 0
1743 -723 1485 0
1743 723 -1485 0
-1744 729 1491 0
-1744 -729 -1491 0
1744 -729 1491 0
1744 729 -1491 0
-1745 735 1497 0
-1745 -735 -1497 0
1745 -735 1497 0
1745 735 -1497 0
-1746 741 1503 0
-1746 -741 -1503 0
1746 -741 1503 0
1746 741 -1503 0
-1747 747 1509 0
-1747 -747 -1509 0
1747 -747 1509 0
1747 747 -1509 0
-1748 753 1515 0
-1748 -753 -1515 0
1748 -753 1515 0
1748 753 -1515 0
-1749 759 1521 0
-1749 -759 -1521 0
1749 -759 1521 0
1749 759 -1521 0
-1750 765 1527 0
-1750 -765 -1527 0
1750 -765 1527 0
1750 765 -1527 0
-1751 771 1533 0
-1751 -771 -1533 0
1751 -771 1533 0
1751 771 -1533 0
-1752 777 1539 0
-1752 -777 -1539 0
1752 -777 1539 0
1752 777 -1539 0
-1753 783 1545 0
-1753 -783 -1545 0
1753 -783 1545 0
1753 783 -1545 0
-1754 789 1551 0
-1754 -789 -1551 0
1754 -789 1551 0
1754 789 -1551 0
-1755 795 1557 0
-1755 -795 -1557 0
1755 -795 1557 0
1755 795 -1557 0
-1756 801 1563 0
-1756 -801 -1563 0
1756 -801 1563 0
1756 801 -1563 0
-1757 807 1569 0
-1757 -807 -1569 0
1757 -807 1569 0
1757 807 -1569 0
-1758 813 1575 0
-1758 -813 -1575 0
1758 -813 1575 0
1758 813 -1575 0
-1759 819 1581 0
-1759 -819 -1581 0
1759 -819 1581 0
1759 819 -1581 0
-1760 825 1587 0
-1760 -825 -1587 0
1760 -825 1587 0
1760 825 -1587 0
-1761 831 1593 0
-1761 -831 -1593 0
1761 -831 1593 0
1761 831 -1593 0
-1762 837 1599 0
-1762 -837 -1599 0
1762 -837 1599 0
1762 837 -1599 0
-1763 843 1605 0
-1763 -843 -1605 0
1763 -843 1605 0
1763 843 -1605 0
-1764 849 1611 0
-1764 -849 -1611 0
1764 -849 1611 0
1764 849 -1611 0
-1765 855 1617 0
-1765 -855 -1617 0
1765 -855 1617 0
1765 855 -1617 0
-1766 861 1623 0
-1766 -861 -1623 0
1766 -861 1623 0
1766 861 -1623 0
-1767 867 1629 0
-1767 -867 -1629 0
1767 -867 1629 0
1767 867 -1629 0
-1768 873 1635 0
-1768 -873 -1635 0
1768 -873 1635 0
1768 873 -1635 0
-1769 879 1641 0
-1769 -879 -1641 0
1769 -879 1641 0
1769 879 -1641 0
-1770 885 1647 0
-1770 -885 -1647 0
1770 -885 1647 0
1770 885 -1647 0
-1771 891 1653 0
-1771 -891 -1653 0
1771 -891 1653 0
1771 891 -1653 0
-1772 897 1659 0
-1772 -897 -1659 0
1772 -897 1659 0
1772 897 -1659 0
-1773 903 1665 0
-1773 -903 -1665 0
1773 -903 1665 0
1773 903 -1665 0
-1774 909 1671 0
-1774 -909 -1671 0
1774 -909 1671 0
1774 909 -1671 0
-1775 915 1677 0
-1775 -915 -1677 0
1775 -915 1677 0
1775 915 -1677 0
-1776 921 1683 0
-1776 -921 -1683 0
1776 -921 1683 0
1776 921 -1683 0
-1777 927 1689 0
-1777 -927 -1689 0
1777 -927 1689 0
1777 927 -1689 0
-1778 933 1695 0
-1778 -933 -1695 0
1778 -933 1695 0
1778 933 -1695 0
-1779 939 1701 0
-1779 -939 -1701 0
1779 -939 1701 0
1779 939 -1701 0
-1780 945 1707 0
-1780 -945 -1707 0
1780 -945 1707 0
1780 945 -1707 0
-1781 951 1713 0
-1781 -951 -1713 0
1781 -951 1713 0
1781 951 -1713 0
1718 1719 1720 1721 1722 1723 1724 1725 1726 1727 1728 1729 1730 1731 1732 1733 1734 1735 1736 1737 1738 1739 1740 1741 1742 1743 1744 1745 1746 1747 1748 1749 1750 1751 1752 1753 1754 1755 1756 1757 1758 1759 1760 1761 1762 1763 1764 1765 1766 1767 1768 1769 1770 1771 1772 1773 1774 1775 1776 1777 1778 1779 1780 1781 0
