p cnf 885 2778
1 0
-98 2 34 0
-98 -2 -34 0
98 -2 34 0
98 2 -34 0
-99 2 0
-99 34 0
99 -2 -34 0
-100 2 34 0
-100 -2 -34 0
100 -2 34 0
100 2 -34 0
-101 3 35 0
-101 -3 -35 0
101 -3 35 0
101 3 -35 0
-102 101 99 0
-102 -101 -99 0
102 -101 99 0
102 101 -99 0
-103 3 0
-103 35 0
103 -3 -35 0
-104 3 35 0
-104 -3 -35 0
104 -3 35 0
104 3 -35 0
-105 99 0
-105 104 0
105 -99 -104 0
-106 -103 0
-106 -105 0
106 103 105 0
-107 4 36 0
-107 -4 -36 0
107 -4 36 0
107 4 -36 0
-108 107 -106 0
-108 -107 106 0
108 -107 -106 0
108 107 106 0
-109 4 0
-109 36 0
109 -4 -36 0
-110 4 36 0
-110 -4 -36 0
110 -4 36 0
110 4 -36 0
-111 -106 0
-111 110 0
111 106 -110 0
-112 -109 0
-112 -111 0
112 109 111 0
-113 5 37 0
-113 -5 -37 0
113 -5 37 0
113 5 -37 0
-114 113 -112 0
-114 -113 112 0
114 -113 -112 0
114 113 112 0
-115 5 0
-115 37 0
115 -5 -37 0
-116 5 37 0
-116 -5 -37 0
116 -5 37 0
116 5 -37 0
-117 -112 0
-117 116 0
117 112 -116 0
-118 -115 0
-118 -117 0
118 115 117 0
-119 6 38 0
-119 -6 -38 0
119 -6 38 0
119 6 -38 0
-120 119 -118 0
-120 -119 118 0
120 -119 -118 0
120 119 118 0
-121 6 0
-121 38 0
121 -6 -38 0
-122 6 38 0
-122 -6 -38 0
122 -6 38 0
122 6 -38 0
-123 -118 0
-123 122 0
123 118 -122 0
-124 -121 0
-124 -123 0
124 121 123 0
-125 7 39 0
-125 -7 -39 0
125 -7 39 0
125 7 -39 0
-126 125 -124 0
-126 -125 124 0
126 -125 -124 0
126 125 124 0
-127 7 0
-127 39 0
127 -7 -39 0
-128 7 39 0
-128 -7 -39 0
128 -7 39 0
128 7 -39 0
-129 -124 0
-129 128 0
129 124 -128 0
-130 -127 0
-130 -129 0
130 127 129 0
-131 8 40 0
-131 -8 -40 0
131 -8 40 0
131 8 -40 0
-132 131 -130 0
-132 -131 130 0
132 -131 -130 0
132 131 130 0
-133 8 0
-133 40 0
133 -8 -40 0
-134 8 40 0
-134 -8 -40 0
134 -8 40 0
134 8 -40 0
-135 -130 0
-135 134 0
135 130 -134 0
-136 -133 0
-136 -135 0
136 133 135 0
-137 9 41 0
-137 -9 -41 0
137 -9 41 0
137 9 -41 0
-138 137 -136 0
-138 -137 136 0
138 -137 -136 0
138 137 136 0
-139 9 0
-139 41 0
139 -9 -41 0
-140 9 41 0
-140 -9 -41 0
140 -9 41 0
140 9 -41 0
-141 -136 0
-141 140 0
141 136 -140 0
-142 -139 0
-142 -141 0
142 139 141 0
-143 10 42 0
-143 -10 -42 0
143 -10 42 0
143 10 -42 0
-144 143 -142 0
-144 -143 142 0
144 -143 -142 0
144 143 142 0
-145 10 0
-145 42 0
145 -10 -42 0
-146 10 42 0
-146 -10 -42 0
146 -10 42 0
146 10 -42 0
-147 -142 0
-147 146 0
147 142 -146 0
-148 -145 0
-148 -147 0
148 145 147 0
-149 11 43 0
-149 -11 -43 0
149 -11 43 0
149 11 -43 0
-150 149 -148 0
-150 -149 148 0
150 -149 -148 0
150 149 148 0
-151 11 0
-151 43 0
151 -11 -43 0
-152 11 43 0
-152 -11 -43 0
152 -11 43 0
152 11 -43 0
-153 -148 0
-153 152 0
153 148 -152 0
-154 -151 0
-154 -153 0
154 151 153 0
-155 12 44 0
-155 -12 -44 0
155 -12 44 0
155 12 -44 0
-156 155 -154 0
-156 -155 154 0
156 -155 -154 0
156 155 154 0
-157 12 0
-157 44 0
157 -12 -44 0
-158 12 44 0
-158 -12 -44 0
158 -12 44 0
158 12 -44 0
-159 -154 0
-159 158 0
159 154 -158 0
-160 -157 0
-160 -159 0
160 157 159 0
-161 13 45 0
-161 -13 -45 0
161 -13 45 0
161 13 -45 0
-162 161 -160 0
-162 -161 160 0
162 -161 -160 0
162 161 160 0
-163 13 0
-163 45 0
163 -13 -45 0
-164 13 45 0
-164 -13 -45 0
164 -13 45 0
164 13 -45 0
-165 -160 0
-165 164 0
165 160 -164 0
-166 -163 0
-166 -165 0
166 163 165 0
-167 14 46 0
-167 -14 -46 0
167 -14 46 0
167 14 -46 0
-168 167 -166 0
-168 -167 166 0
168 -167 -166 0
168 167 166 0
-169 14 0
-169 46 0
169 -14 -46 0
-170 14 46 0
-170 -14 -46 0
170 -14 46 0
170 14 -46 0
-171 -166 0
-171 170 0
171 166 -170 0
-172 -169 0
-172 -171 0
172 169 171 0
-173 15 47 0
-173 -15 -47 0
173 -15 47 0
173 15 -47 0
-174 173 -172 0
-174 -173 172 0
174 -173 -172 0
174 173 172 0
-175 15 0
-175 47 0
175 -15 -47 0
-176 15 47 0
-176 -15 -47 0
176 -15 47 0
176 15 -47 0
-177 -172 0
-177 176 0
177 172 -176 0
-178 -175 0
-178 -177 0
178 175 177 0
-179 16 48 0
-179 -16 -48 0
179 -16 48 0
179 16 -48 0
-180 179 -178 0
-180 -179 178 0
180 -179 -178 0
180 179 178 0
-181 16 0
-181 48 0
181 -16 -48 0
-182 16 48 0
-182 -16 -48 0
182 -16 48 0
182 16 -48 0
-183 -178 0
-183 182 0
183 178 -182 0
-184 -181 0
-184 -183 0
184 181 183 0
-185 17 49 0
-185 -17 -49 0
185 -17 49 0
185 17 -49 0
-186 185 -184 0
-186 -185 184 0
186 -185 -184 0
186 185 184 0
-187 17 0
-187 49 0
187 -17 -49 0
-188 17 49 0
-188 -17 -49 0
188 -17 49 0
188 17 -49 0
-189 -184 0
-189 188 0
189 184 -188 0
-190 -187 0
-190 -189 0
190 187 189 0
-191 18 50 0
-191 -18 -50 0
191 -18 50 0
191 18 -50 0
-192 191 -190 0
-192 -191 190 0
192 -191 -190 0
192 191 190 0
-193 18 0
-193 50 0
193 -18 -50 0
-194 18 50 0
-194 -18 -50 0
194 -18 50 0
194 18 -50 0
-195 -190 0
-195 194 0
195 190 -194 0
-196 -193 0
-196 -195 0
196 193 195 0
-197 19 51 0
-197 -19 -51 0
197 -19 51 0
197 19 -51 0
-198 197 -196 0
-198 -197 196 0
198 -197 -196 0
198 197 196 0
-199 19 0
-199 51 0
199 -19 -51 0
-200 19 51 0
-200 -19 -51 0
200 -19 51 0
200 19 -51 0
-201 -196 0
-201 200 0
201 196 -200 0
-202 -199 0
-202 -201 0
202 199 201 0
-203 20 52 0
-203 -20 -52 0
203 -20 52 0
203 20 -52 0
-204 203 -202 0
-204 -203 202 0
204 -203 -202 0
204 203 202 0
-205 20 0
-205 52 0
205 -20 -52 0
-206 20 52 0
-206 -20 -52 0
206 -20 52 0
206 20 -52 0
-207 -202 0
-207 206 0
207 202 -206 0
-208 -205 0
-208 -207 0
208 205 207 0
-209 21 53 0
-209 -21 -53 0
209 -21 53 0
209 21 -53 0
-210 209 -208 0
-210 -209 208 0
210 -209 -208 0
210 209 208 0
-211 21 0
-211 53 0
211 -21 -53 0
-212 21 53 0
-212 -21 -53 0
212 -21 53 0
212 21 -53 0
-213 -208 0
-213 212 0
213 208 -212 0
-214 -211 0
-214 -213 0
214 211 213 0
-215 22 54 0
-215 -22 -54 0
215 -22 54 0
215 22 -54 0
-216 215 -214 0
-216 -215 214 0
216 -215 -214 0
216 215 214 0
-217 22 0
-217 54 0
217 -22 -54 0
-218 22 54 0
-218 -22 -54 0
218 -22 54 0
218 22 -54 0
-219 -214 0
-219 218 0
219 214 -218 0
-220 -217 0
-220 -219 0
220 217 219 0
-221 23 55 0
-221 -23 -55 0
221 -23 55 0
221 23 -55 0
-222 221 -220 0
-222 -221 220 0
222 -221 -220 0
222 221 220 0
-223 23 0
-223 55 0
223 -23 -55 0
-224 23 55 0
-224 -23 -55 0
224 -23 55 0
224 23 -55 0
-225 -220 0
-225 224 0
225 220 -224 0
-226 -223 0
-226 -225 0
226 223 225 0
-227 24 56 0
-227 -24 -56 0
227 -24 56 0
227 24 -56 0
-228 227 -226 0
-228 -227 226 0
228 -227 -226 0
228 227 226 0
-229 24 0
-229 56 0
229 -24 -56 0
-230 24 56 0
-230 -24 -56 0
230 -24 56 0
230 24 -56 0
-231 -226 0
-231 230 0
231 226 -230 0
-232 -229 0
-232 -231 0
232 229 231 0
-233 25 57 0
-233 -25 -57 0
233 -25 57 0
233 25 -57 0
-234 233 -232 0
-234 -233 232 0
234 -233 -232 0
234 233 232 0
-235 25 0
-235 57 0
235 -25 -57 0
-236 25 57 0
-236 -25 -57 0
236 -25 57 0
236 25 -57 0
-237 -232 0
-237 236 0
237 232 -236 0
-238 -235 0
-238 -237 0
238 235 237 0
-239 26 58 0
-239 -26 -58 0
239 -26 58 0
239 26 -58 0
-240 239 -238 0
-240 -239 238 0
240 -239 -238 0
240 239 238 0
-241 26 0
-241 58 0
241 -26 -58 0
-242 26 58 0
-242 -26 -58 0
242 -26 58 0
242 26 -58 0
-243 -238 0
-243 242 0
243 238 -242 0
-244 -241 0
-244 -243 0
244 241 243 0
-245 27 59 0
-245 -27 -59 0
245 -27 59 0
245 27 -59 0
-246 245 -244 0
-246 -245 244 0
246 -245 -244 0
246 245 244 0
-247 27 0
-247 59 0
247 -27 -59 0
-248 27 59 0
-248 -27 -59 0
248 -27 59 0
248 27 -59 0
-249 -244 0
-249 248 0
249 244 -248 0
-250 -247 0
-250 -249 0
250 247 249 0
-251 28 60 0
-251 -28 -60 0
251 -28 60 0
251 28 -60 0
-252 251 -250 0
-252 -251 250 0
252 -251 -250 0
252 251 250 0
-253 28 0
-253 60 0
253 -28 -60 0
-254 28 60 0
-254 -28 -60 0
254 -28 60 0
254 28 -60 0
-255 -250 0
-255 254 0
255 250 -254 0
-256 -253 0
-256 -255 0
256 253 255 0
-257 29 61 0
-257 -29 -61 0
257 -29 61 0
257 29 -61 0
-258 257 -256 0
-258 -257 256 0
258 -257 -256 0
258 257 256 0
-259 29 0
-259 61 0
259 -29 -61 0
-260 29 61 0
-260 -29 -61 0
260 -29 61 0
260 29 -61 0
-261 -256 0
-261 260 0
261 256 -260 0
-262 -259 0
-262 -261 0
262 259 261 0
-263 30 62 0
-263 -30 -62 0
263 -30 62 0
263 30 -62 0
-264 263 -262 0
-264 -263 262 0
264 -263 -262 0
264 263 262 0
-265 30 0
-265 62 0
265 -30 -62 0
-266 30 62 0
-266 -30 -62 0
266 -30 62 0
266 30 -62 0
-267 -262 0
-267 266 0
267 262 -266 0
-268 -265 0
-268 -267 0
268 265 267 0
-269 31 63 0
-269 -31 -63 0
269 -31 63 0
269 31 -63 0
-270 269 -268 0
-270 -269 268 0
270 -269 -268 0
270 269 268 0
-271 31 0
-271 63 0
271 -31 -63 0
-272 31 63 0
-272 -31 -63 0
272 -31 63 0
272 31 -63 0
-273 -268 0
-273 272 0
273 268 -272 0
-274 -271 0
-274 -273 0
274 271 273 0
-275 32 64 0
-275 -32 -64 0
275 -32 64 0
275 32 -64 0
-276 275 -274 0
-276 -275 274 0
276 -275 -274 0
276 275 274 0
-277 32 0
-277 64 0
277 -32 -64 0
-278 32 64 0
-278 -32 -64 0
278 -32 64 0
278 32 -64 0
-279 -274 0
-279 278 0
279 274 -278 0
-280 -277 0
-280 -279 0
280 277 279 0
-281 33 65 0
-281 -33 -65 0
281 -33 65 0
281 33 -65 0
-282 281 -280 0
-282 -281 280 0
282 -281 -280 0
282 281 280 0
-283 33 0
-283 65 0
283 -33 -65 0
-284 33 65 0
-284 -33 -65 0
284 -33 65 0
284 33 -65 0
-285 -280 0
-285 284 0
285 280 -284 0
-286 -283 0
-286 -285 0
286 283 285 0
-287 98 66 0
-287 -98 -66 0
287 -98 66 0
287 98 -66 0
-288 98 0
-288 66 0
288 -98 -66 0
-289 98 66 0
-289 -98 -66 0
289 -98 66 0
289 98 -66 0
-290 102 67 0
-290 -102 -67 0
290 -102 67 0
290 102 -67 0
-291 290 288 0
-291 -290 -288 0
291 -290 288 0
291 290 -288 0
-292 102 0
-292 67 0
292 -102 -67 0
-293 102 67 0
-293 -102 -67 0
293 -102 67 0
293 102 -67 0
-294 288 0
-294 293 0
294 -288 -293 0
-295 -292 0
-295 -294 0
295 292 294 0
-296 108 68 0
-296 -108 -68 0
296 -108 68 0
296 108 -68 0
-297 296 -295 0
-297 -296 295 0
297 -296 -295 0
297 296 295 0
-298 108 0
-298 68 0
298 -108 -68 0
-299 108 68 0
-299 -108 -68 0
299 -108 68 0
299 108 -68 0
-300 -295 0
-300 299 0
300 295 -299 0
-301 -298 0
-301 -300 0
301 298 300 0
-302 114 69 0
-302 -114 -69 0
302 -114 69 0
302 114 -69 0
-303 302 -301 0
-303 -302 301 0
303 -302 -301 0
303 302 301 0
-304 114 0
-304 69 0
304 -114 -69 0
-305 114 69 0
-305 -114 -69 0
305 -114 69 0
305 114 -69 0
-306 -301 0
-306 305 0
306 301 -305 0
-307 -304 0
-307 -306 0
307 304 306 0
-308 120 70 0
-308 -120 -70 0
308 -120 70 0
308 120 -70 0
-309 308 -307 0
-309 -308 307 0
309 -308 -307 0
309 308 307 0
-310 120 0
-310 70 0
310 -120 -70 0
-311 120 70 0
-311 -120 -70 0
311 -120 70 0
311 120 -70 0
-312 -307 0
-312 311 0
312 307 -311 0
-313 -310 0
-313 -312 0
313 310 312 0
-314 126 71 0
-314 -126 -71 0
314 -126 71 0
314 126 -71 0
-315 314 -313 0
-315 -314 313 0
315 -314 -313 0
315 314 313 0
-316 126 0
-316 71 0
316 -126 -71 0
-317 126 71 0
-317 -126 -71 0
317 -126 71 0
317 126 -71 0
-318 -313 0
-318 317 0
318 313 -317 0
-319 -316 0
-319 -318 0
319 316 318 0
-320 132 72 0
-320 -132 -72 0
320 -132 72 0
320 132 -72 0
-321 320 -319 0
-321 -320 319 0
321 -320 -319 0
321 320 319 0
-322 132 0
-322 72 0
322 -132 -72 0
-323 132 72 0
-323 -132 -72 0
323 -132 72 0
323 132 -72 0
-324 -319 0
-324 323 0
324 319 -323 0
-325 -322 0
-325 -324 0
325 322 324 0
-326 138 73 0
-326 -138 -73 0
326 -138 73 0
326 138 -73 0
-327 326 -325 0
-327 -326 325 0
327 -326 -325 0
327 326 325 0
-328 138 0
-328 73 0
328 -138 -73 0
-329 138 73 0
-329 -138 -73 0
329 -138 73 0
329 138 -73 0
-330 -325 0
-330 329 0
330 325 -329 0
-331 -328 0
-331 -330 0
331 328 330 0
-332 144 74 0
-332 -144 -74 0
332 -144 74 0
332 144 -74 0
-333 332 -331 0
-333 -332 331 0
333 -332 -331 0
333 332 331 0
-334 144 0
-334 74 0
334 -144 -74 0
-335 144 74 0
-335 -144 -74 0
335 -144 74 0
335 144 -74 0
-336 -331 0
-336 335 0
336 331 -335 0
-337 -334 0
-337 -336 0
337 334 336 0
-338 150 75 0
-338 -150 -75 0
338 -150 75 0
338 150 -75 0
-339 338 -337 0
-339 -338 337 0
339 -338 -337 0
339 338 337 0
-340 150 0
-340 75 0
340 -150 -75 0
-341 150 75 0
-341 -150 -75 0
341 -150 75 0
341 150 -75 0
-342 -337 0
-342 341 0
342 337 -341 0
-343 -340 0
-343 -342 0
343 340 342 0
-344 156 76 0
-344 -156 -76 0
344 -156 76 0
344 156 -76 0
-345 344 -343 0
-345 -344 343 0
345 -344 -343 0
345 344 343 0
-346 156 0
-346 76 0
346 -156 -76 0
-347 156 76 0
-347 -156 -76 0
347 -156 76 0
347 156 -76 0
-348 -343 0
-348 347 0
348 343 -347 0
-349 -346 0
-349 -348 0
349 346 348 0
-350 162 77 0
-350 -162 -77 0
350 -162 77 0
350 162 -77 0
-351 350 -349 0
-351 -350 349 0
351 -350 -349 0
351 350 349 0
-352 162 0
-352 77 0
352 -162 -77 0
-353 162 77 0
-353 -162 -77 0
353 -162 77 0
353 162 -77 0
-354 -349 0
-354 353 0
354 349 -353 0
-355 -352 0
-355 -354 0
355 352 354 0
-356 168 78 0
-356 -168 -78 0
356 -168 78 0
356 168 -78 0
-357 356 -355 0
-357 -356 355 0
357 -356 -355 0
357 356 355 0
-358 168 0
-358 78 0
358 -168 -78 0
-359 168 78 0
-359 -168 -78 0
359 -168 78 0
359 168 -78 0
-360 -355 0
-360 359 0
360 355 -359 0
-361 -358 0
-361 -360 0
361 358 360 0
-362 174 79 0
-362 -174 -79 0
362 -174 79 0
362 174 -79 0
-363 362 -361 0
-363 -362 361 0
363 -362 -361 0
363 362 361 0
-364 174 0
-364 79 0
364 -174 -79 0
-365 174 79 0
-365 -174 -79 0
365 -174 79 0
365 174 -79 0
-366 -361 0
-366 365 0
366 361 -365 0
-367 -364 0
-367 -366 0
367 364 366 0
-368 180 80 0
-368 -180 -80 0
368 -180 80 0
368 180 -80 0
-369 368 -367 0
-369 -368 367 0
369 -368 -367 0
369 368 367 0
-370 180 0
-370 80 0
370 -180 -80 0
-371 180 80 0
-371 -180 -80 0
371 -180 80 0
371 180 -80 0
-372 -367 0
-372 371 0
372 367 -371 0
-373 -370 0
-373 -372 0
373 370 372 0
-374 186 81 0
-374 -186 -81 0
374 -186 81 0
374 186 -81 0
-375 374 -373 0
-375 -374 373 0
375 -374 -373 0
375 374 373 0
-376 186 0
-376 81 0
376 -186 -81 0
-377 186 81 0
-377 -186 -81 0
377 -186 81 0
377 186 -81 0
-378 -373 0
-378 377 0
378 373 -377 0
-379 -376 0
-379 -378 0
379 376 378 0
-380 192 82 0
-380 -192 -82 0
380 -192 82 0
380 192 -82 0
-381 380 -379 0
-381 -380 379 0
381 -380 -379 0
381 380 379 0
-382 192 0
-382 82 0
382 -192 -82 0
-383 192 82 0
-383 -192 -82 0
383 -192 82 0
383 192 -82 0
-384 -379 0
-384 383 0
384 379 -383 0
-385 -382 0
-385 -384 0
385 382 384 0
-386 198 83 0
-386 -198 -83 0
386 -198 83 0
386 198 -83 0
-387 386 -385 0
-387 -386 385 0
387 -386 -385 0
387 386 385 0
-388 198 0
-388 83 0
388 -198 -83 0
-389 198 83 0
-389 -198 -83 0
389 -198 83 0
389 198 -83 0
-390 -385 0
-390 389 0
390 385 -389 0
-391 -388 0
-391 -390 0
391 388 390 0
-392 204 84 0
-392 -204 -84 0
392 -204 84 0
392 204 -84 0
-393 392 -391 0
-393 -392 391 0
393 -392 -391 0
393 392 391 0
-394 204 0
-394 84 0
394 -204 -84 0
-395 204 84 0
-395 -204 -84 0
395 -204 84 0
395 204 -84 0
-396 -391 0
-396 395 0
396 391 -395 0
-397 -394 0
-397 -396 0
397 394 396 0
-398 210 85 0
-398 -210 -85 0
398 -210 85 0
398 210 -85 0
-399 398 -397 0
-399 -398 397 0
399 -398 -397 0
399 398 397 0
-400 210 0
-400 85 0
400 -210 -85 0
-401 210 85 0
-401 -210 -85 0
401 -210 85 0
401 210 -85 0
-402 -397 0
-402 401 0
402 397 -401 0
-403 -400 0
-403 -402 0
403 400 402 0
-404 216 86 0
-404 -216 -86 0
404 -216 86 0
404 216 -86 0
-405 404 -403 0
-405 -404 403 0
405 -404 -403 0
405 404 403 0
-406 216 0
-406 86 0
406 -216 -86 0
-407 216 86 0
-407 -216 -86 0
407 -216 86 0
407 216 -86 0
-408 -403 0
-408 407 0
408 403 -407 0
-409 -406 0
-409 -408 0
409 406 408 0
-410 222 87 0
-410 -222 -87 0
410 -222 87 0
410 222 -87 0
-411 410 -409 0
-411 -410 409 0
411 -410 -409 0
411 410 409 0
-412 222 0
-412 87 0
412 -222 -87 0
-413 222 87 0
-413 -222 -87 0
413 -222 87 0
413 222 -87 0
-414 -409 0
-414 413 0
414 409 -413 0
-415 -412 0
-415 -414 0
415 412 414 0
-416 228 88 0
-416 -228 -88 0
416 -228 88 0
416 228 -88 0
-417 416 -415 0
-417 -416 415 0
417 -416 -415 0
417 416 415 0
-418 228 0
-418 88 0
418 -228 -88 0
-419 228 88 0
-419 -228 -88 0
419 -228 88 0
419 228 -88 0
-420 -415 0
-420 419 0
420 415 -419 0
-421 -418 0
-421 -420 0
421 418 420 0
-422 234 89 0
-422 -234 -89 0
422 -234 89 0
422 234 -89 0
-423 422 -421 0
-423 -422 421 0
423 -422 -421 0
423 422 421 0
-424 234 0
-424 89 0
424 -234 -89 0
-425 234 89 0
-425 -234 -89 0
425 -234 89 0
425 234 -89 0
-426 -421 0
-426 425 0
426 421 -425 0
-427 -424 0
-427 -426 0
427 424 426 0
-428 240 90 0
-428 -240 -90 0
428 -240 90 0
428 240 -90 0
-429 428 -427 0
-429 -428 427 0
429 -428 -427 0
429 428 427 0
-430 240 0
-430 90 0
430 -240 -90 0
-431 240 90 0
-431 -240 -90 0
431 -240 90 0
431 240 -90 0
-432 -427 0
-432 431 0
432 427 -431 0
-433 -430 0
-433 -432 0
433 430 432 0
-434 246 91 0
-434 -246 -91 0
434 -246 91 0
434 246 -91 0
-435 434 -433 0
-435 -434 433 0
435 -434 -433 0
435 434 433 0
-436 246 0
-436 91 0
436 -246 -91 0
-437 246 91 0
-437 -246 -91 0
437 -246 91 0
437 246 -91 0
-438 -433 0
-438 437 0
438 433 -437 0
-439 -436 0
-439 -438 0
439 436 438 0
-440 252 92 0
-440 -252 -92 0
440 -252 92 0
440 252 -92 0
-441 440 -439 0
-441 -440 439 0
441 -440 -439 0
441 440 439 0
-442 252 0
-442 92 0
442 -252 -92 0
-443 252 92 0
-443 -252 -92 0
443 -252 92 0
443 252 -92 0
-444 -439 0
-444 443 0
444 439 -443 0
-445 -442 0
-445 -444 0
445 442 444 0
-446 258 93 0
-446 -258 -93 0
446 -258 93 0
446 258 -93 0
-447 446 -445 0
-447 -446 445 0
447 -446 -445 0
447 446 445 0
-448 258 0
-448 93 0
448 -258 -93 0
-449 258 93 0
-449 -258 -93 0
449 -258 93 0
449 258 -93 0
-450 -445 0
-450 449 0
450 445 -449 0
-451 -448 0
-451 -450 0
451 448 450 0
-452 264 94 0
-452 -264 -94 0
452 -264 94 0
452 264 -94 0
-453 452 -451 0
-453 -452 451 0
453 -452 -451 0
453 452 451 0
-454 264 0
-454 94 0
454 -264 -94 0
-455 264 94 0
-455 -264 -94 0
455 -264 94 0
455 264 -94 0
-456 -451 0
-456 455 0
456 451 -455 0
-457 -454 0
-457 -456 0
457 454 456 0
-458 270 95 0
-458 -270 -95 0
458 -270 95 0
458 270 -95 0
-459 458 -457 0
-459 -458 457 0
459 -458 -457 0
459 458 457 0
-460 270 0
-460 95 0
460 -270 -95 0
-461 270 95 0
-461 -270 -95 0
461 -270 95 0
461 270 -95 0
-462 -457 0
-462 461 0
462 457 -461 0
-463 -460 0
-463 -462 0
463 460 462 0
-464 276 96 0
-464 -276 -96 0
464 -276 96 0
464 276 -96 0
-465 464 -463 0
-465 -464 463 0
465 -464 -463 0
465 464 463 0
-466 276 0
-466 96 0
466 -276 -96 0
-467 276 96 0
-467 -276 -96 0
467 -276 96 0
467 276 -96 0
-468 -463 0
-468 467 0
468 463 -467 0
-469 -466 0
-469 -468 0
469 466 468 0
-470 282 97 0
-470 -282 -97 0
470 -282 97 0
470 282 -97 0
-471 470 -469 0
-471 -470 469 0
471 -470 -469 0
471 470 469 0
-472 282 0
-472 97 0
472 -282 -97 0
-473 282 97 0
-473 -282 -97 0
473 -282 97 0
473 282 -97 0
-474 -469 0
-474 473 0
474 469 -473 0
-475 -472 0
-475 -474 0
475 472 474 0
-476 34 66 0
-476 -34 -66 0
476 -34 66 0
476 34 -66 0
-477 34 0
-477 66 0
477 -34 -66 0
-478 34 66 0
-478 -34 -66 0
478 -34 66 0
478 34 -66 0
-479 35 67 0
-479 -35 -67 0
479 -35 67 0
479 35 -67 0
-480 479 477 0
-480 -479 -477 0
480 -479 477 0
480 479 -477 0
-481 35 0
-481 67 0
481 -35 -67 0
-482 35 67 0
-482 -35 -67 0
482 -35 67 0
482 35 -67 0
-483 477 0
-483 482 0
483 -477 -482 0
-484 -481 0
-484 -483 0
484 481 483 0
-485 36 68 0
-485 -36 -68 0
485 -36 68 0
485 36 -68 0
-486 485 -484 0
-486 -485 484 0
486 -485 -484 0
486 485 484 0
-487 36 0
-487 68 0
487 -36 -68 0
-488 36 68 0
-488 -36 -68 0
488 -36 68 0
488 36 -68 0
-489 -484 0
-489 488 0
489 484 -488 0
-490 -487 0
-490 -489 0
490 487 489 0
-491 37 69 0
-491 -37 -69 0
491 -37 69 0
491 37 -69 0
-492 491 -490 0
-492 -491 490 0
492 -491 -490 0
492 491 490 0
-493 37 0
-493 69 0
493 -37 -69 0
-494 37 69 0
-494 -37 -69 0
494 -37 69 0
494 37 -69 0
-495 -490 0
-495 494 0
495 490 -494 0
-496 -493 0
-496 -495 0
496 493 495 0
-497 38 70 0
-497 -38 -70 0
497 -38 70 0
497 38 -70 0
-498 497 -496 0
-498 -497 496 0
498 -497 -496 0
498 497 496 0
-499 38 0
-499 70 0
499 -38 -70 0
-500 38 70 0
-500 -38 -70 0
500 -38 70 0
500 38 -70 0
-501 -496 0
-501 500 0
501 496 -500 0
-502 -499 0
-502 -501 0
502 499 501 0
-503 39 71 0
-503 -39 -71 0
503 -39 71 0
503 39 -71 0
-504 503 -502 0
-504 -503 502 0
504 -503 -502 0
504 503 502 0
-505 39 0
-505 71 0
505 -39 -71 0
-506 39 71 0
-506 -39 -71 0
506 -39 71 0
506 39 -71 0
-507 -502 0
-507 506 0
507 502 -506 0
-508 -505 0
-508 -507 0
508 505 507 0
-509 40 72 0
-509 -40 -72 0
509 -40 72 0
509 40 -72 0
-510 509 -508 0
-510 -509 508 0
510 -509 -508 0
510 509 508 0
-511 40 0
-511 72 0
511 -40 -72 0
-512 40 72 0
-512 -40 -72 0
512 -40 72 0
512 40 -72 0
-513 -508 0
-513 512 0
513 508 -512 0
-514 -511 0
-514 -513 0
514 511 513 0
-515 41 73 0
-515 -41 -73 0
515 -41 73 0
515 41 -73 0
-516 515 -514 0
-516 -515 514 0
516 -515 -514 0
516 515 514 0
-517 41 0
-517 73 0
517 -41 -73 0
-518 41 73 0
-518 -41 -73 0
518 -41 73 0
518 41 -73 0
-519 -514 0
-519 518 0
519 514 -518 0
-520 -517 0
-520 -519 0
520 517 519 0
-521 42 74 0
-521 -42 -74 0
521 -42 74 0
521 42 -74 0
-522 521 -520 0
-522 -521 520 0
522 -521 -520 0
522 521 520 0
-523 42 0
-523 74 0
523 -42 -74 0
-524 42 74 0
-524 -42 -74 0
524 -42 74 0
524 42 -74 0
-525 -520 0
-525 524 0
525 520 -524 0
-526 -523 0
-526 -525 0
526 523 525 0
-527 43 75 0
-527 -43 -75 0
527 -43 75 0
527 43 -75 0
-528 527 -526 0
-528 -527 526 0
528 -527 -526 0
528 527 526 0
-529 43 0
-529 75 0
529 -43 -75 0
-530 43 75 0
-530 -43 -75 0
530 -43 75 0
530 43 -75 0
-531 -526 0
-531 530 0
531 526 -530 0
-532 -529 0
-532 -531 0
532 529 531 0
-533 44 76 0
-533 -44 -76 0
533 -44 76 0
533 44 -76 0
-534 533 -532 0
-534 -533 532 0
534 -533 -532 0
534 533 532 0
-535 44 0
-535 76 0
535 -44 -76 0
-536 44 76 0
-536 -44 -76 0
536 -44 76 0
536 44 -76 0
-537 -532 0
-537 536 0
537 532 -536 0
-538 -535 0
-538 -537 0
538 535 537 0
-539 45 77 0
-539 -45 -77 0
539 -45 77 0
539 45 -77 0
-540 539 -538 0
-540 -539 538 0
540 -539 -538 0
540 539 538 0
-541 45 0
-541 77 0
541 -45 -77 0
-542 45 77 0
-542 -45 -77 0
542 -45 77 0
542 45 -77 0
-543 -538 0
-543 542 0
543 538 -542 0
-544 -541 0
-544 -543 0
544 541 543 0
-545 46 78 0
-545 -46 -78 0
545 -46 78 0
545 46 -78 0
-546 545 -544 0
-546 -545 544 0
546 -545 -544 0
546 545 544 0
-547 46 0
-547 78 0
547 -46 -78 0
-548 46 78 0
-548 -46 -78 0
548 -46 78 0
548 46 -78 0
-549 -544 0
-549 548 0
549 544 -548 0
-550 -547 0
-550 -549 0
550 547 549 0
-551 47 79 0
-551 -47 -79 0
551 -47 79 0
551 47 -79 0
-552 551 -550 0
-552 -551 550 0
552 -551 -550 0
552 551 550 0
-553 47 0
-553 79 0
553 -47 -79 0
-554 47 79 0
-554 -47 -79 0
554 -47 79 0
554 47 -79 0
-555 -550 0
-555 554 0
555 550 -554 0
-556 -553 0
-556 -555 0
556 553 555 0
-557 48 80 0
-557 -48 -80 0
557 -48 80 0
557 48 -80 0
-558 557 -556 0
-558 -557 556 0
558 -557 -556 0
558 557 556 0
-559 48 0
-559 80 0
559 -48 -80 0
-560 48 80 0
-560 -48 -80 0
560 -48 80 0
560 48 -80 0
-561 -556 0
-561 560 0
561 556 -560 0
-562 -559 0
-562 -561 0
562 559 561 0
-563 49 81 0
-563 -49 -81 0
563 -49 81 0
563 49 -81 0
-564 563 -562 0
-564 -563 562 0
564 -563 -562 0
564 563 562 0
-565 49 0
-565 81 0
565 -49 -81 0
-566 49 81 0
-566 -49 -81 0
566 -49 81 0
566 49 -81 0
-567 -562 0
-567 566 0
567 562 -566 0
-568 -565 0
-568 -567 0
568 565 567 0
-569 50 82 0
-569 -50 -82 0
569 -50 82 0
569 50 -82 0
-570 569 -568 0
-570 -569 568 0
570 -569 -568 0
570 569 568 0
-571 50 0
-571 82 0
571 -50 -82 0
-572 50 82 0
-572 -50 -82 0
572 -50 82 0
572 50 -82 0
-573 -568 0
-573 572 0
573 568 -572 0
-574 -571 0
-574 -573 0
574 571 573 0
-575 51 83 0
-575 -51 -83 0
575 -51 83 0
575 51 -83 0
-576 575 -574 0
-576 -575 574 0
576 -575 -574 0
576 575 574 0
-577 51 0
-577 83 0
577 -51 -83 0
-578 51 83 0
-578 -51 -83 0
578 -51 83 0
578 51 -83 0
-579 -574 0
-579 578 0
579 574 -578 0
-580 -577 0
-580 -579 0
580 577 579 0
-581 52 84 0
-581 -52 -84 0
581 -52 84 0
581 52 -84 0
-582 581 -580 0
-582 -581 580 0
582 -581 -580 0
582 581 580 0
-583 52 0
-583 84 0
583 -52 -84 0
-584 52 84 0
-584 -52 -84 0
584 -52 84 0
584 52 -84 0
-585 -580 0
-585 584 0
585 580 -584 0
-586 -583 0
-586 -585 0
586 583 585 0
-587 53 85 0
-587 -53 -85 0
587 -53 85 0
587 53 -85 0
-588 587 -586 0
-588 -587 586 0
588 -587 -586 0
588 587 586 0
-589 53 0
-589 85 0
589 -53 -85 0
-590 53 85 0
-590 -53 -85 0
590 -53 85 0
590 53 -85 0
-591 -586 0
-591 590 0
591 586 -590 0
-592 -589 0
-592 -591 0
592 589 591 0
-593 54 86 0
-593 -54 -86 0
593 -54 86 0
593 54 -86 0
-594 593 -592 0
-594 -593 592 0
594 -593 -592 0
594 593 592 0
-595 54 0
-595 86 0
595 -54 -86 0
-596 54 86 0
-596 -54 -86 0
596 -54 86 0
596 54 -86 0
-597 -592 0
-597 596 0
597 592 -596 0
-598 -595 0
-598 -597 0
598 595 597 0
-599 55 87 0
-599 -55 -87 0
599 -55 87 0
599 55 -87 0
-600 599 -598 0
-600 -599 598 0
600 -599 -598 0
600 599 598 0
-601 55 0
-601 87 0
601 -55 -87 0
-602 55 87 0
-602 -55 -87 0
602 -55 87 0
602 55 -87 0
-603 -598 0
-603 602 0
603 598 -602 0
-604 -601 0
-604 -603 0
604 601 603 0
-605 56 88 0
-605 -56 -88 0
605 -56 88 0
605 56 -88 0
-606 605 -604 0
-606 -605 604 0
606 -605 -604 0
606 605 604 0
-607 56 0
-607 88 0
607 -56 -88 0
-608 56 88 0
-608 -56 -88 0
608 -56 88 0
608 56 -88 0
-609 -604 0
-609 608 0
609 604 -608 0
-610 -607 0
-610 -609 0
610 607 609 0
-611 57 89 0
-611 -57 -89 0
611 -57 89 0
611 57 -89 0
-612 611 -610 0
-612 -611 610 0
612 -611 -610 0
612 611 610 0
-613 57 0
-613 89 0
613 -57 -89 0
-614 57 89 0
-614 -57 -89 0
614 -57 89 0
614 57 -89 0
-615 -610 0
-615 614 0
615 610 -614 0
-616 -613 0
-616 -615 0
616 613 615 0
-617 58 90 0
-617 -58 -90 0
617 -58 90 0
617 58 -90 0
-618 617 -616 0
-618 -617 616 0
618 -617 -616 0
618 617 616 0
-619 58 0
-619 90 0
619 -58 -90 0
-620 58 90 0
-620 -58 -90 0
620 -58 90 0
620 58 -90 0
-621 -616 0
-621 620 0
621 616 -620 0
-622 -619 0
-622 -621 0
622 619 621 0
-623 59 91 0
-623 -59 -91 0
623 -59 91 0
623 59 -91 0
-624 623 -622 0
-624 -623 622 0
624 -623 -622 0
624 623 622 0
-625 59 0
-625 91 0
625 -59 -91 0
-626 59 91 0
-626 -59 -91 0
626 -59 91 0
626 59 -91 0
-627 -622 0
-627 626 0
627 622 -626 0
-628 -625 0
-628 -627 0
628 625 627 0
-629 60 92 0
-629 -60 -92 0
629 -60 92 0
629 60 -92 0
-630 629 -628 0
-630 -629 628 0
630 -629 -628 0
630 629 628 0
-631 60 0
-631 92 0
631 -60 -92 0
-632 60 92 0
-632 -60 -92 0
632 -60 92 0
632 60 -92 0
-633 -628 0
-633 632 0
633 628 -632 0
-634 -631 0
-634 -633 0
634 631 633 0
-635 61 93 0
-635 -61 -93 0
635 -61 93 0
635 61 -93 0
-636 635 -634 0
-636 -635 634 0
636 -635 -634 0
636 635 634 0
-637 61 0
-637 93 0
637 -61 -93 0
-638 61 93 0
-638 -61 -93 0
638 -61 93 0
638 61 -93 0
-639 -634 0
-639 638 0
639 634 -638 0
-640 -637 0
-640 -639 0
640 637 639 0
-641 62 94 0
-641 -62 -94 0
641 -62 94 0
641 62 -94 0
-642 641 -640 0
-642 -641 640 0
642 -641 -640 0
642 641 640 0
-643 62 0
-643 94 0
643 -62 -94 0
-644 62 94 0
-644 -62 -94 0
644 -62 94 0
644 62 -94 0
-645 -640 0
-645 644 0
645 640 -644 0
-646 -643 0
-646 -645 0
646 643 645 0
-647 63 95 0
-647 -63 -95 0
647 -63 95 0
647 63 -95 0
-648 647 -646 0
-648 -647 646 0
648 -647 -646 0
648 647 646 0
-649 63 0
-649 95 0
649 -63 -95 0
-650 63 95 0
-650 -63 -95 0
650 -63 95 0
650 63 -95 0
-651 -646 0
-651 650 0
651 646 -650 0
-652 -649 0
-652 -651 0
652 649 651 0
-653 64 96 0
-653 -64 -96 0
653 -64 96 0
653 64 -96 0
-654 653 -652 0
-654 -653 652 0
654 -653 -652 0
654 653 652 0
-655 64 0
-655 96 0
655 -64 -96 0
-656 64 96 0
-656 -64 -96 0
656 -64 96 0
656 64 -96 0
-657 -652 0
-657 656 0
657 652 -656 0
-658 -655 0
-658 -657 0
658 655 657 0
-659 65 97 0
-659 -65 -97 0
659 -65 97 0
659 65 -97 0
-660 659 -658 0
-660 -659 658 0
660 -659 -658 0
660 659 658 0
-661 65 0
-661 97 0
661 -65 -97 0
-662 65 97 0
-662 -65 -97 0
662 -65 97 0
662 65 -97 0
-663 -658 0
-663 662 0
663 658 -662 0
-664 -661 0
-664 -663 0
664 661 663 0
-665 2 476 0
-665 -2 -476 0
665 -2 476 0
665 2 -476 0
-666 2 0
-666 476 0
666 -2 -476 0
-667 2 476 0
-667 -2 -476 0
667 -2 476 0
667 2 -476 0
-668 3 480 0
-668 -3 -480 0
668 -3 480 0
668 3 -480 0
-669 668 666 0
-669 -668 -666 0
669 -668 666 0
669 668 -666 0
-670 3 0
-670 480 0
670 -3 -480 0
-671 3 480 0
-671 -3 -480 0
671 -3 480 0
671 3 -480 0
-672 666 0
-672 671 0
672 -666 -671 0
-673 -670 0
-673 -672 0
673 670 672 0
-674 4 486 0
-674 -4 -486 0
674 -4 486 0
674 4 -486 0
-675 674 -673 0
-675 -674 673 0
675 -674 -673 0
675 674 673 0
-676 4 0
-676 486 0
676 -4 -486 0
-677 4 486 0
-677 -4 -486 0
677 -4 486 0
677 4 -486 0
-678 -673 0
-678 677 0
678 673 -677 0
-679 -676 0
-679 -678 0
679 676 678 0
-680 5 492 0
-680 -5 -492 0
680 -5 492 0
680 5 -492 0
-681 680 -679 0
-681 -680 679 0
681 -680 -679 0
681 680 679 0
-682 5 0
-682 492 0
682 -5 -492 0
-683 5 492 0
-683 -5 -492 0
683 -5 492 0
683 5 -492 0
-684 -679 0
-684 683 0
684 679 -683 0
-685 -682 0
-685 -684 0
685 682 684 0
-686 6 498 0
-686 -6 -498 0
686 -6 498 0
686 6 -498 0
-687 686 -685 0
-687 -686 685 0
687 -686 -685 0
687 686 685 0
-688 6 0
-688 498 0
688 -6 -498 0
-689 6 498 0
-689 -6 -498 0
689 -6 498 0
689 6 -498 0
-690 -685 0
-690 689 0
690 685 -689 0
-691 -688 0
-691 -690 0
691 688 690 0
-692 7 504 0
-692 -7 -504 0
692 -7 504 0
692 7 -504 0
-693 692 -691 0
-693 -692 691 0
693 -692 -691 0
693 692 691 0
-694 7 0
-694 504 0
694 -7 -504 0
-695 7 504 0
-695 -7 -504 0
695 -7 504 0
695 7 -504 0
-696 -691 0
-696 695 0
696 691 -695 0
-697 -694 0
-697 -696 0
697 694 696 0
-698 8 510 0
-698 -8 -510 0
698 -8 510 0
698 8 -510 0
-699 698 -697 0
-699 -698 697 0
699 -698 -697 0
699 698 697 0
-700 8 0
-700 510 0
700 -8 -510 0
-701 8 510 0
-701 -8 -510 0
701 -8 510 0
701 8 -510 0
-702 -697 0
-702 701 0
702 697 -701 0
-703 -700 0
-703 -702 0
703 700 702 0
-704 9 516 0
-704 -9 -516 0
704 -9 516 0
704 9 -516 0
-705 704 -703 0
-705 -704 703 0
705 -704 -703 0
705 704 703 0
-706 9 0
-706 516 0
706 -9 -516 0
-707 9 516 0
-707 -9 -516 0
707 -9 516 0
707 9 -516 0
-708 -703 0
-708 707 0
708 703 -707 0
-709 -706 0
-709 -708 0
709 706 708 0
-710 10 522 0
-710 -10 -522 0
710 -10 522 0
710 10 -522 0
-711 710 -709 0
-711 -710 709 0
711 -710 -709 0
711 710 709 0
-712 10 0
-712 522 0
712 -10 -522 0
-713 10 522 0
-713 -10 -522 0
713 -10 522 0
713 10 -522 0
-714 -709 0
-714 713 0
714 709 -713 0
-715 -712 0
-715 -714 0
715 712 714 0
-716 11 528 0
-716 -11 -528 0
716 -11 528 0
716 11 -528 0
-717 716 -715 0
-717 -716 715 0
717 -716 -715 0
717 716 715 0
-718 11 0
-718 528 0
718 -11 -528 0
-719 11 528 0
-719 -11 -528 0
719 -11 528 0
719 11 -528 0
-720 -715 0
-720 719 0
720 715 -719 0
-721 -718 0
-721 -720 0
721 718 720 0
-722 12 534 0
-722 -12 -534 0
722 -12 534 0
722 12 -534 0
-723 722 -721 0
-723 -722 721 0
723 -722 -721 0
723 722 721 0
-724 12 0
-724 534 0
724 -12 -534 0
-725 12 534 0
-725 -12 -534 0
725 -12 534 0
725 12 -534 0
-726 -721 0
-726 725 0
726 721 -725 0
-727 -724 0
-727 -726 0
727 724 726 0
-728 13 540 0
-728 -13 -540 0
728 -13 540 0
728 13 -540 0
-729 728 -727 0
-729 -728 727 0
729 -728 -727 0
729 728 727 0
-730 13 0
-730 540 0
730 -13 -540 0
-731 13 540 0
-731 -13 -540 0
731 -13 540 0
731 13 -540 0
-732 -727 0
-732 731 0
732 727 -731 0
-733 -730 0
-733 -732 0
733 730 732 0
-734 14 546 0
-734 -14 -546 0
734 -14 546 0
734 14 -546 0
-735 734 -733 0
-735 -734 733 0
735 -734 -733 0
735 734 733 0
-736 14 0
-736 546 0
736 -14 -546 0
-737 14 546 0
-737 -14 -546 0
737 -14 546 0
737 14 -546 0
-738 -733 0
-738 737 0
738 733 -737 0
-739 -736 0
-739 -738 0
739 736 738 0
-740 15 552 0
-740 -15 -552 0
740 -15 552 0
740 15 -552 0
-741 740 -739 0
-741 -740 739 0
741 -740 -739 0
741 740 739 0
-742 15 0
-742 552 0
742 -15 -552 0
-743 15 552 0
-743 -15 -552 0
743 -15 552 0
743 15 -552 0
-744 -739 0
-744 743 0
744 739 -743 0
-745 -742 0
-745 -744 0
745 742 744 0
-746 16 558 0
-746 -16 -558 0
746 -16 558 0
746 16 -558 0
-747 746 -745 0
-747 -746 745 0
747 -746 -745 0
747 746 745 0
-748 16 0
-748 558 0
748 -16 -558 0
-749 16 558 0
-749 -16 -558 0
749 -16 558 0
749 16 -558 0
-750 -745 0
-750 749 0
750 745 -749 0
-751 -748 0
-751 -750 0
751 748 750 0
-752 17 564 0
-752 -17 -564 0
752 -17 564 0
752 17 -564 0
-753 752 -751 0
-753 -752 751 0
753 -752 -751 0
753 752 751 0
-754 17 0
-754 564 0
754 -17 -564 0
-755 17 564 0
-755 -17 -564 0
755 -17 564 0
755 17 -564 0
-756 -751 0
-756 755 0
756 751 -755 0
-757 -754 0
-757 -756 0
757 754 756 0
-758 18 570 0
-758 -18 -570 0
758 -18 570 0
758 18 -570 0
-759 758 -757 0
-759 -758 757 0
759 -758 -757 0
759 758 757 0
-760 18 0
-760 570 0
760 -18 -570 0
-761 18 570 0
-761 -18 -570 0
761 -18 570 0
761 18 -570 0
-762 -757 0
-762 761 0
762 757 -761 0
-763 -760 0
-763 -762 0
763 760 762 0
-764 19 576 0
-764 -19 -576 0
764 -19 576 0
764 19 -576 0
-765 764 -763 0
-765 -764 763 0
765 -764 -763 0
765 764 763 0
-766 19 0
-766 576 0
766 -19 -576 0
-767 19 576 0
-767 -19 -576 0
767 -19 576 0
767 19 -576 0
-768 -763 0
-768 767 0
768 763 -767 0
-769 -766 0
-769 -768 0
769 766 768 0
-770 20 582 0
-770 -20 -582 0
770 -20 582 0
770 20 -582 0
-771 770 -769 0
-771 -770 769 0
771 -770 -769 0
771 770 769 0
-772 20 0
-772 582 0
772 -20 -582 0
-773 20 582 0
-773 -20 -582 0
773 -20 582 0
773 20 -582 0
-774 -769 0
-774 773 0
774 769 -773 0
-775 -772 0
-775 -774 0
775 772 774 0
-776 21 588 0
-776 -21 -588 0
776 -21 588 0
776 21 -588 0
-777 776 -775 0
-777 -776 775 0
777 -776 -775 0
777 776 775 0
-778 21 0
-778 588 0
778 -21 -588 0
-779 21 588 0
-779 -21 -588 0
779 -21 588 0
779 21 -588 0
-780 -775 0
-780 779 0
780 775 -779 0
-781 -778 0
-781 -780 0
781 778 780 0
-782 22 594 0
-782 -22 -594 0
782 -22 594 0
782 22 -594 0
-783 782 -781 0
-783 -782 781 0
783 -782 -781 0
783 782 781 0
-784 22 0
-784 594 0
784 -22 -594 0
-785 22 594 0
-785 -22 -594 0
785 -22 594 0
785 22 -594 0
-786 -781 0
-786 785 0
786 781 -785 0
-787 -784 0
-787 -786 0
787 784 786 0
-788 23 600 0
-788 -23 -600 0
788 -23 600 0
788 23 -600 0
-789 788 -787 0
-789 -788 787 0
789 -788 -787 0
789 788 787 0
-790 23 0
-790 600 0
790 -23 -600 0
-791 23 600 0
-791 -23 -600 0
791 -23 600 0
791 23 -600 0
-792 -787 0
-792 791 0
792 787 -791 0
-793 -790 0
-793 -792 0
793 790 792 0
-794 24 606 0
-794 -24 -606 0
794 -24 606 0
794 24 -606 0
-795 794 -793 0
-795 -794 793 0
795 -794 -793 0
795 794 793 0
-796 24 0
-796 606 0
796 -24 -606 0
-797 24 606 0
-797 -24 -606 0
797 -24 606 0
797 24 -606 0
-798 -793 0
-798 797 0
798 793 -797 0
-799 -796 0
-799 -798 0
799 796 798 0
-800 25 612 0
-800 -25 -612 0
800 -25 612 0
800 25 -612 0
-801 800 -799 0
-801 -800 799 0
801 -800 -799 0
801 800 799 0
-802 25 0
-802 612 0
802 -25 -612 0
-803 25 612 0
-803 -25 -612 0
803 -25 612 0
803 25 -612 0
-804 -799 0
-804 803 0
804 799 -803 0
-805 -802 0
-805 -804 0
805 802 804 0
-806 26 618 0
-806 -26 -618 0
806 -26 618 0
806 26 -618 0
-807 806 -805 0
-807 -806 805 0
807 -806 -805 0
807 806 805 0
-808 26 0
-808 618 0
808 -26 -618 0
-809 26 618 0
-809 -26 -618 0
809 -26 618 0
809 26 -618 0
-810 -805 0
-810 809 0
810 805 -809 0
-811 -808 0
-811 -810 0
811 808 810 0
-812 27 624 0
-812 -27 -624 0
812 -27 624 0
812 27 -624 0
-813 812 -811 0
-813 -812 811 0
813 -812 -811 0
813 812 811 0
-814 27 0
-814 624 0
814 -27 -624 0
-815 27 624 0
-815 -27 -624 0
815 -27 624 0
815 27 -624 0
-816 -811 0
-816 815 0
816 811 -815 0
-817 -814 0
-817 -816 0
817 814 816 0
-818 28 630 0
-818 -28 -630 0
818 -28 630 0
818 28 -630 0
-819 818 -817 0
-819 -818 817 0
819 -818 -817 0
819 818 817 0
-820 28 0
-820 630 0
820 -28 -630 0
-821 28 630 0
-821 -28 -630 0
821 -28 630 0
821 28 -630 0
-822 -817 0
-822 821 0
822 817 -821 0
-823 -820 0
-823 -822 0
823 820 822 0
-824 29 636 0
-824 -29 -636 0
824 -29 636 0
824 29 -636 0
-825 824 -823 0
-825 -824 823 0
825 -824 -823 0
825 824 823 0
-826 29 0
-826 636 0
826 -29 -636 0
-827 29 636 0
-827 -29 -636 0
827 -29 636 0
827 29 -636 0
-828 -823 0
-828 827 0
828 823 -827 0
-829 -826 0
-829 -828 0
829 826 828 0
-830 30 642 0
-830 -30 -642 0
830 -30 642 0
830 30 -642 0
-831 830 -829 0
-831 -830 829 0
831 -830 -829 0
831 830 829 0
-832 30 0
-832 642 0
832 -30 -642 0
-833 30 642 0
-833 -30 -642 0
833 -30 642 0
833 30 -642 0
-834 -829 0
-834 833 0
834 829 -833 0
-835 -832 0
-835 -834 0
835 832 834 0
-836 31 648 0
-836 -31 -648 0
836 -31 648 0
836 31 -648 0
-837 836 -835 0
-837 -836 835 0
837 -836 -835 0
837 836 835 0
-838 31 0
-838 648 0
838 -31 -648 0
-839 31 648 0
-839 -31 -648 0
839 -31 648 0
839 31 -648 0
-840 -835 0
-840 839 0
840 835 -839 0
-841 -838 0
-841 -840 0
841 838 840 0
-842 32 654 0
-842 -32 -654 0
842 -32 654 0
842 32 -654 0
-843 842 -841 0
-843 -842 841 0
843 -842 -841 0
843 842 841 0
-844 32 0
-844 654 0
844 -32 -654 0
-845 32 654 0
-845 -32 -654 0
845 -32 654 0
845 32 -654 0
-846 -841 0
-846 845 0
846 841 -845 0
-847 -844 0
-847 -846 0
847 844 846 0
-848 33 660 0
-848 -33 -660 0
848 -33 660 0
848 33 -660 0
-849 848 -847 0
-849 -848 847 0
849 -848 -847 0
849 848 847 0
-850 33 0
-850 660 0
850 -33 -660 0
-851 33 660 0
-851 -33 -660 0
851 -33 660 0
851 33 -660 0
-852 -847 0
-852 851 0
852 847 -851 0
-853 -850 0
-853 -852 0
853 850 852 0
-854 287 665 0
-854 -287 -665 0
854 -287 665 0
854 287 -665 0
-855 291 669 0
-855 -291 -669 0
855 -291 669 0
855 291 -669 0
-856 297 675 0
-856 -297 -675 0
856 -297 675 0
856 297 -675 0
-857 303 681 0
-857 -303 -681 0
857 -303 681 0
857 303 -681 0
-858 309 687 0
-858 -309 -687 0
858 -309 687 0
858 309 -687 0
-859 315 693 0
-859 -315 -693 0
859 -315 693 0
859 315 -693 0
-860 321 699 0
-860 -321 -699 0
860 -321 699 0
860 321 -699 0
-861 327 705 0
-861 -327 -705 0
861 -327 705 0
861 327 -705 0
-862 333 711 0
-862 -333 -711 0
862 -333 711 0
862 333 -711 0
-863 339 717 0
-863 -339 -717 0
863 -339 717 0
863 339 -717 0
-864 345 723 0
-864 -345 -723 0
864 -345 723 0
864 345 -723 0
-865 351 729 0
-865 -351 -729 0
865 -351 729 0
865 351 -729 0
-866 357 735 0
-866 -357 -735 0
866 -357 735 0
866 357 -735 0
-867 363 741 0
-867 -363 -741 0
867 -363 741 0
867 363 -741 0
-868 369 747 0
-868 -369 -747 0
868 -369 747 0
868 369 -747 0
-869 375 753 0
-869 -375 -753 0
869 -375 753 0
869 375 -753 0
-870 381 759 0
-870 -381 -759 0
870 -381 759 0
870 381 -759 0
-871 387 765 0
-871 -387 -765 0
871 -387 765 0
871 387 -765 0
-872 393 771 0
-872 -393 -771 0
872 -393 771 0
872 393 -771 0
-873 399 777 0
-873 -399 -777 0
873 -399 777 0
873 399 -777 0
-874 405 783 0
-874 -405 -783 0
874 -405 783 0
874 405 -783 0
-875 411 789 0
-875 -411 -789 0
875 -411 789 0
875 411 -789 0
-876 417 795 0
-876 -417 -795 0
876 -417 795 0
876 417 -795 0
-877 423 801 0
-877 -423 -801 0
877 -423 801 0
877 423 -801 0
-878 429 807 0
-878 -429 -807 0
878 -429 807 0
878 429 -807 0
-879 435 813 0
-879 -435 -813 0
879 -435 813 0
879 435 -813 0
-880 441 819 0
-880 -441 -819 0
880 -441 819 0
880 441 -819 0
-881 447 825 0
-881 -447 -825 0
881 -447 825 0
881 447 -825 0
-882 453 831 0
-882 -453 -831 0
882 -453 831 0
882 453 -831 0
-883 459 837 0
-883 -459 -837 0
883 -459 837 0
883 459 -837 0
-884 465 843 0
-884 -465 -843 0
884 -465 843 0
884 465 -843 0
-885 471 849 0
-885 -471 -849 0
885 -471 849 0
885 471 -849 0
854 855 856 857 858 859 860 861 862 863 864 865 866 867 868 869 870 871 872 873 874 875 876 877 878 879 880 881 882 883 884 885 0
