p cnf 437 1370
1 0
-50 2 18 0
-50 -2 -18 0
50 -2 18 0
50 2 -18 0
-51 2 0
-51 18 0
51 -2 -18 0
-52 2 18 0
-52 -2 -18 0
52 -2 18 0
52 2 -18 0
-53 3 19 0
-53 -3 -19 0
53 -3 19 0
53 3 -19 0
-54 53 51 0
-54 -53 -51 0
54 -53 51 0
54 53 -51 0
-55 3 0
-55 19 0
55 -3 -19 0
-56 3 19 0
-56 -3 -19 0
56 -3 19 0
56 3 -19 0
-57 51 0
-57 56 0
57 -51 -56 0
-58 -55 0
-58 -57 0
58 55 57 0
-59 4 20 0
-59 -4 -20 0
59 -4 20 0
59 4 -20 0
-60 59 -58 0
-60 -59 58 0
60 -59 -58 0
60 59 58 0
-61 4 0
-61 20 0
61 -4 -20 0
-62 4 20 0
-62 -4 -20 0
62 -4 20 0
62 4 -20 0
-63 -58 0
-63 62 0
63 58 -62 0
-64 -61 0
-64 -63 0
64 61 63 0
-65 5 21 0
-65 -5 -21 0
65 -5 21 0
65 5 -21 0
-66 65 -64 0
-66 -65 64 0
66 -65 -64 0
66 65 64 0
-67 5 0
-67 21 0
67 -5 -21 0
-68 5 21 0
-68 -5 -21 0
68 -5 21 0
68 5 -21 0
-69 -64 0
-69 68 0
69 64 -68 0
-70 -67 0
-70 -69 0
70 67 69 0
-71 6 22 0
-71 -6 -22 0
71 -6 22 0
71 6 -22 0
-72 71 -70 0
-72 -71 70 0
72 -71 -70 0
72 71 70 0
-73 6 0
-73 22 0
73 -6 -22 0
-74 6 22 0
-74 -6 -22 0
74 -6 22 0
74 6 -22 0
-75 -70 0
-75 74 0
75 70 -74 0
-76 -73 0
-76 -75 0
76 73 75 0
-77 7 23 0
-77 -7 -23 0
77 -7 23 0
77 7 -23 0
-78 77 -76 0
-78 -77 76 0
78 -77 -76 0
78 77 76 0
-79 7 0
-79 23 0
79 -7 -23 0
-80 7 23 0
-80 -7 -23 0
80 -7 23 0
80 7 -23 0
-81 -76 0
-81 80 0
81 76 -80 0
-82 -79 0
-82 -81 0
82 79 81 0
-83 8 24 0
-83 -8 -24 0
83 -8 24 0
83 8 -24 0
-84 83 -82 0
-84 -83 82 0
84 -83 -82 0
84 83 82 0
-85 8 0
-85 24 0
85 -8 -24 0
-86 8 24 0
-86 -8 -24 0
86 -8 24 0
86 8 -24 0
-87 -82 0
-87 86 0
87 82 -86 0
-88 -85 0
-88 -87 0
88 85 87 0
-89 9 25 0
-89 -9 -25 0
89 -9 25 0
89 9 -25 0
-90 89 -88 0
-90 -89 88 0
90 -89 -88 0
90 89 88 0
-91 9 0
-91 25 0
91 -9 -25 0
-92 9 25 0
-92 -9 -25 0
92 -9 25 0
92 9 -25 0
-93 -88 0
-93 92 0
93 88 -92 0
-94 -91 0
-94 -93 0
94 91 93 0
-95 10 26 0
-95 -10 -26 0
95 -10 26 0
95 10 -26 0
-96 95 -94 0
-96 -95 94 0
96 -95 -94 0
96 95 94 0
-97 10 0
-97 26 0
97 -10 -26 0
-98 10 26 0
-98 -10 -26 0
98 -10 26 0
98 10 -26 0
-99 -94 0
-99 98 0
99 94 -98 0
-100 -97 0
-100 -99 0
100 97 99 0
-101 11 27 0
-101 -11 -27 0
101 -11 27 0
101 11 -27 0
-102 101 -100 0
-102 -101 100 0
102 -101 -100 0
102 101 100 0
-103 11 0
-103 27 0
103 -11 -27 0
-104 11 27 0
-104 -11 -27 0
104 -11 27 0
104 11 -27 0
-105 -100 0
-105 104 0
105 100 -104 0
-106 -103 0
-106 -105 0
106 103 105 0
-107 12 28 0
-107 -12 -28 0
107 -12 28 0
107 12 -28 0
-108 107 -106 0
-108 -107 106 0
108 -107 -106 0
108 107 106 0
-109 12 0
-109 28 0
109 -12 -28 0
-110 12 28 0
-110 -12 -28 0
110 -12 28 0
110 12 -28 0
-111 -106 0
-111 110 0
111 106 -110 0
-112 -109 0
-112 -111 0
112 109 111 0
-113 13 29 0
-113 -13 -29 0
113 -13 29 0
113 13 -29 0
-114 113 -112 0
-114 -113 112 0
114 -113 -112 0
114 113 112 0
-115 13 0
-115 29 0
115 -13 -29 0
-116 13 29 0
-116 -13 -29 0
116 -13 29 0
116 13 -29 0
-117 -112 0
-117 116 0
117 112 -116 0
-118 -115 0
-118 -117 0
118 115 117 0
-119 14 30 0
-119 -14 -30 0
119 -14 30 0
119 14 -30 0
-120 119 -118 0
-120 -119 118 0
120 -119 -118 0
120 119 118 0
-121 14 0
-121 30 0
121 -14 -30 0
-122 14 30 0
-122 -14 -30 0
122 -14 30 0
122 14 -30 0
-123 -118 0
-123 122 0
123 118 -122 0
-124 -121 0
-124 -123 0
124 121 123 0
-125 15 31 0
-125 -15 -31 0
125 -15 31 0
125 15 -31 0
-126 125 -124 0
-126 -125 124 0
126 -125 -124 0
126 125 124 0
-127 15 0
-127 31 0
127 -15 -31 0
-128 15 31 0
-128 -15 -31 0
128 -15 31 0
128 15 -31 0
-129 -124 0
-129 128 0
129 124 -128 0
-130 -127 0
-130 -129 0
130 127 129 0
-131 16 32 0
-131 -16 -32 0
131 -16 32 0
131 16 -32 0
-132 131 -130 0
-132 -131 130 0
132 -131 -130 0
132 131 130 0
-133 16 0
-133 32 0
133 -16 -32 0
-134 16 32 0
-134 -16 -32 0
134 -16 32 0
134 16 -32 0
-135 -130 0
-135 134 0
135 130 -134 0
-136 -133 0
-136 -135 0
136 133 135 0
-137 17 33 0
-137 -17 -33 0
137 -17 33 0
137 17 -33 0
-138 137 -136 0
-138 -137 136 0
138 -137 -136 0
138 137 136 0
-139 17 0
-139 33 0
139 -17 -33 0
-140 17 33 0
-140 -17 -33 0
140 -17 33 0
140 17 -33 0
-141 -136 0
-141 140 0
141 136 -140 0
-142 -139 0
-142 -141 0
142 139 141 0
-143 50 34 0
-143 -50 -34 0
143 -50 34 0
143 50 -34 0
-144 50 0
-144 34 0
144 -50 -34 0
-145 50 34 0
-145 -50 -34 0
145 -50 34 0
145 50 -34 0
-146 54 35 0
-146 -54 -35 0
146 -54 35 0
146 54 -35 0
-147 146 144 0
-147 -146 -144 0
147 -146 144 0
147 146 -144 0
-148 54 0
-148 35 0
148 -54 -35 0
-149 54 35 0
-149 -54 -35 0
149 -54 35 0
149 54 -35 0
-150 144 0
-150 149 0
150 -144 -149 0
-151 -148 0
-151 -150 0
151 148 150 0
-152 60 36 0
-152 -60 -36 0
152 -60 36 0
152 60 -36 0
-153 152 -151 0
-153 -152 151 0
153 -152 -151 0
153 152 151 0
-154 60 0
-154 36 0
154 -60 -36 0
-155 60 36 0
-155 -60 -36 0
155 -60 36 0
155 60 -36 0
-156 -151 0
-156 155 0
156 151 -155 0
-157 -154 0
-157 -156 0
157 154 156 0
-158 66 37 0
-158 -66 -37 0
158 -66 37 0
158 66 -37 0
-159 158 -157 0
-159 -158 157 0
159 -158 -157 0
159 158 157 0
-160 66 0
-160 37 0
160 -66 -37 0
-161 66 37 0
-161 -66 -37 0
161 -66 37 0
161 66 -37 0
-162 -157 0
-162 161 0
162 157 -161 0
-163 -160 0
-163 -162 0
163 160 162 0
-164 72 38 0
-164 -72 -38 0
164 -72 38 0
164 72 -38 0
-165 164 -163 0
-165 -164 163 0
165 -164 -163 0
165 164 163 0
-166 72 0
-166 38 0
166 -72 -38 0
-167 72 38 0
-167 -72 -38 0
167 -72 38 0
167 72 -38 0
-168 -163 0
-168 167 0
168 163 -167 0
-169 -166 0
-169 -168 0
169 166 168 0
-170 78 39 0
-170 -78 -39 0
170 -78 39 0
170 78 -39 0
-171 170 -169 0
-171 -170 169 0
171 -170 -169 0
171 170 169 0
-172 78 0
-172 39 0
172 -78 -39 0
-173 78 39 0
-173 -78 -39 0
173 -78 39 0
173 78 -39 0
-174 -169 0
-174 173 0
174 169 -173 0
-175 -172 0
-175 -174 0
175 172 174 0
-176 84 40 0
-176 -84 -40 0
176 -84 40 0
176 84 -40 0
-177 176 -175 0
-177 -176 175 0
177 -176 -175 0
177 176 175 0
-178 84 0
-178 40 0
178 -84 -40 0
-179 84 40 0
-179 -84 -40 0
179 -84 40 0
179 84 -40 0
-180 -175 0
-180 179 0
180 175 -179 0
-181 -178 0
-181 -180 0
181 178 180 0
-182 90 41 0
-182 -90 -41 0
182 -90 41 0
182 90 -41 0
-183 182 -181 0
-183 -182 181 0
183 -182 -181 0
183 182 181 0
-184 90 0
-184 41 0
184 -90 -41 0
-185 90 41 0
-185 -90 -41 0
185 -90 41 0
185 90 -41 0
-186 -181 0
-186 185 0
186 181 -185 0
-187 -184 0
-187 -186 0
187 184 186 0
-188 96 42 0
-188 -96 -42 0
188 -96 42 0
188 96 -42 0
-189 188 -187 0
-189 -188 187 0
189 -188 -187 0
189 188 187 0
-190 96 0
-190 42 0
190 -96 -42 0
-191 96 42 0
-191 -96 -42 0
191 -96 42 0
191 96 -42 0
-192 -187 0
-192 191 0
192 187 -191 0
-193 -190 0
-193 -192 0
193 190 192 0
-194 102 43 0
-194 -102 -43 0
194 -102 43 0
194 102 -43 0
-195 194 -193 0
-195 -194 193 0
195 -194 -193 0
195 194 193 0
-196 102 0
-196 43 0
196 -102 -43 0
-197 102 43 0
-197 -102 -43 0
197 -102 43 0
197 102 -43 0
-198 -193 0
-198 197 0
198 193 -197 0
-199 -196 0
-199 -198 0
199 196 198 0
-200 108 44 0
-200 -108 -44 0
200 -108 44 0
200 108 -44 0
-201 200 -199 0
-201 -200 199 0
201 -200 -199 0
201 200 199 0
-202 108 0
-202 44 0
202 -108 -44 0
-203 108 44 0
-203 -108 -44 0
203 -108 44 0
203 108 -44 0
-204 -199 0
-204 203 0
204 199 -203 0
-205 -202 0
-205 -204 0
205 202 204 0
-206 114 45 0
-206 -114 -45 0
206 -114 45 0
206 114 -45 0
-207 206 -205 0
-207 -206 205 0
207 -206 -205 0
207 206 205 0
-208 114 0
-208 45 0
208 -114 -45 0
-209 114 45 0
-209 -114 -45 0
209 -114 45 0
209 114 -45 0
-210 -205 0
-210 209 0
210 205 -209 0
-211 -208 0
-211 -210 0
211 208 210 0
-212 120 46 0
-212 -120 -46 0
212 -120 46 0
212 120 -46 0
-213 212 -211 0
-213 -212 211 0
213 -212 -211 0
213 212 211 0
-214 120 0
-214 46 0
214 -120 -46 0
-215 120 46 0
-215 -120 -46 0
215 -120 46 0
215 120 -46 0
-216 -211 0
-216 215 0
216 211 -215 0
-217 -214 0
-217 -216 0
217 214 216 0
-218 126 47 0
-218 -126 -47 0
218 -126 47 0
218 126 -47 0
-219 218 -217 0
-219 -218 217 0
219 -218 -217 0
219 218 217 0
-220 126 0
-220 47 0
220 -126 -47 0
-221 126 47 0
-221 -126 -47 0
221 -126 47 0
221 126 -47 0
-222 -217 0
-222 221 0
222 217 -221 0
-223 -220 0
-223 -222 0
223 220 222 0
-224 132 48 0
-224 -132 -48 0
224 -132 48 0
224 132 -48 0
-225 224 -223 0
-225 -224 223 0
225 -224 -223 0
225 224 223 0
-226 132 0
-226 48 0
226 -132 -48 0
-227 132 48 0
-227 -132 -48 0
227 -132 48 0
227 132 -48 0
-228 -223 0
-228 227 0
228 223 -227 0
-229 -226 0
-229 -228 0
229 226 228 0
-230 138 49 0
-230 -138 -49 0
230 -138 49 0
230 138 -49 0
-231 230 -229 0
-231 -230 229 0
231 -230 -229 0
231 230 229 0
-232 138 0
-232 49 0
232 -138 -49 0
-233 138 49 0
-233 -138 -49 0
233 -138 49 0
233 138 -49 0
-234 -229 0
-234 233 0
234 229 -233 0
-235 -232 0
-235 -234 0
235 232 234 0
-236 18 34 0
-236 -18 -34 0
236 -18 34 0
236 18 -34 0
-237 18 0
-237 34 0
237 -18 -34 0
-238 18 34 0
-238 -18 -34 0
238 -18 34 0
238 18 -34 0
-239 19 35 0
-239 -19 -35 0
239 -19 35 0
239 19 -35 0
-240 239 237 0
-240 -239 -237 0
240 -239 237 0
240 239 -237 0
-241 19 0
-241 35 0
241 -19 -35 0
-242 19 35 0
-242 -19 -35 0
242 -19 35 0
242 19 -35 0
-243 237 0
-243 242 0
243 -237 -242 0
-244 -241 0
-244 -243 0
244 241 243 0
-245 20 36 0
-245 -20 -36 0
245 -20 36 0
245 20 -36 0
-246 245 -244 0
-246 -245 244 0
246 -245 -244 0
246 245 244 0
-247 20 0
-247 36 0
247 -20 -36 0
-248 20 36 0
-248 -20 -36 0
248 -20 36 0
248 20 -36 0
-249 -244 0
-249 248 0
249 244 -248 0
-250 -247 0
-250 -249 0
250 247 249 0
-251 21 37 0
-251 -21 -37 0
251 -21 37 0
251 21 -37 0
-252 251 -250 0
-252 -251 250 0
252 -251 -250 0
252 251 250 0
-253 21 0
-253 37 0
253 -21 -37 0
-254 21 37 0
-254 -21 -37 0
254 -21 37 0
254 21 -37 0
-255 -250 0
-255 254 0
255 250 -254 0
-256 -253 0
-256 -255 0
256 253 255 0
-257 22 38 0
-257 -22 -38 0
257 -22 38 0
257 22 -38 0
-258 257 -256 0
-258 -257 256 0
258 -257 -256 0
258 257 256 0
-259 22 0
-259 38 0
259 -22 -38 0
-260 22 38 0
-260 -22 -38 0
260 -22 38 0
260 22 -38 0
-261 -256 0
-261 260 0
261 256 -260 0
-262 -259 0
-262 -261 0
262 259 261 0
-263 23 39 0
-263 -23 -39 0
263 -23 39 0
263 23 -39 0
-264 263 -262 0
-264 -263 262 0
264 -263 -262 0
264 263 262 0
-265 23 0
-265 39 0
265 -23 -39 0
-266 23 39 0
-266 -23 -39 0
266 -23 39 0
266 23 -39 0
-267 -262 0
-267 266 0
267 262 -266 0
-268 -265 0
-268 -267 0
268 265 267 0
-269 24 40 0
-269 -24 -40 0
269 -24 40 0
269 24 -40 0
-270 269 -268 0
-270 -269 268 0
270 -269 -268 0
270 269 268 0
-271 24 0
-271 40 0
271 -24 -40 0
-272 24 40 0
-272 -24 -40 0
272 -24 40 0
272 24 -40 0
-273 -268 0
-273 272 0
273 268 -272 0
-274 -271 0
-274 -273 0
274 271 273 0
-275 25 41 0
-275 -25 -41 0
275 -25 41 0
275 25 -41 0
-276 275 -274 0
-276 -275 274 0
276 -275 -274 0
276 275 274 0
-277 25 0
-277 41 0
277 -25 -41 0
-278 25 41 0
-278 -25 -41 0
278 -25 41 0
278 25 -41 0
-279 -274 0
-279 278 0
279 274 -278 0
-280 -277 0
-280 -279 0
280 277 279 0
-281 26 42 0
-281 -26 -42 0
281 -26 42 0
281 26 -42 0
-282 281 -280 0
-282 -281 280 0
282 -281 -280 0
282 281 280 0
-283 26 0
-283 42 0
283 -26 -42 0
-284 26 42 0
-284 -26 -42 0
284 -26 42 0
284 26 -42 0
-285 -280 0
-285 284 0
285 280 -284 0
-286 -283 0
-286 -285 0
286 283 285 0
-287 27 43 0
-287 -27 -43 0
287 -27 43 0
287 27 -43 0
-288 287 -286 0
-288 -287 286 0
288 -287 -286 0
288 287 286 0
-289 27 0
-289 43 0
289 -27 -43 0
-290 27 43 0
-290 -27 -43 0
290 -27 43 0
290 27 -43 0
-291 -286 0
-291 290 0
291 286 -290 0
-292 -289 0
-292 -291 0
292 289 291 0
-293 28 44 0
-293 -28 -44 0
293 -28 44 0
293 28 -44 0
-294 293 -292 0
-294 -293 292 0
294 -293 -292 0
294 293 292 0
-295 28 0
-295 44 0
295 -28 -44 0
-296 28 44 0
-296 -28 -44 0
296 -28 44 0
296 28 -44 0
-297 -292 0
-297 296 0
297 292 -296 0
-298 -295 0
-298 -297 0
298 295 297 0
-299 29 45 0
-299 -29 -45 0
299 -29 45 0
299 29 -45 0
-300 299 -298 0
-300 -299 298 0
300 -299 -298 0
300 299 298 0
-301 29 0
-301 45 0
301 -29 -45 0
-302 29 45 0
-302 -29 -45 0
302 -29 45 0
302 29 -45 0
-303 -298 0
-303 302 0
303 298 -302 0
-304 -301 0
-304 -303 0
304 301 303 0
-305 30 46 0
-305 -30 -46 0
305 -30 46 0
305 30 -46 0
-306 305 -304 0
-306 -305 304 0
306 -305 -304 0
306 305 304 0
-307 30 0
-307 46 0
307 -30 -46 0
-308 30 46 0
-308 -30 -46 0
308 -30 46 0
308 30 -46 0
-309 -304 0
-309 308 0
309 304 -308 0
-310 -307 0
-310 -309 0
310 307 309 0
-311 31 47 0
-311 -31 -47 0
311 -31 47 0
311 31 -47 0
-312 311 -310 0
-312 -311 310 0
312 -311 -310 0
312 311 310 0
-313 31 0
-313 47 0
313 -31 -47 0
-314 31 47 0
-314 -31 -47 0
314 -31 47 0
314 31 -47 0
-315 -310 0
-315 314 0
315 310 -314 0
-316 -313 0
-316 -315 0
316 313 315 0
-317 32 48 0
-317 -32 -48 0
317 -32 48 0
317 32 -48 0
-318 317 -316 0
-318 -317 316 0
318 -317 -316 0
318 317 316 0
-319 32 0
-319 48 0
319 -32 -48 0
-320 32 48 0
-320 -32 -48 0
320 -32 48 0
320 32 -48 0
-321 -316 0
-321 320 0
321 316 -320 0
-322 -319 0
-322 -321 0
322 319 321 0
-323 33 49 0
-323 -33 -49 0
323 -33 49 0
323 33 -49 0
-324 323 -322 0
-324 -323 322 0
324 -323 -322 0
324 323 322 0
-325 33 0
-325 49 0
325 -33 -49 0
-326 33 49 0
-326 -33 -49 0
326 -33 49 0
326 33 -49 0
-327 -322 0
-327 326 0
327 322 -326 0
-328 -325 0
-328 -327 0
328 325 327 0
-329 2 236 0
-329 -2 -236 0
329 -2 236 0
329 2 -236 0
-330 2 0
-330 236 0
330 -2 -236 0
-331 2 236 0
-331 -2 -236 0
331 -2 236 0
331 2 -236 0
-332 3 240 0
-332 -3 -240 0
332 -3 240 0
332 3 -240 0
-333 332 330 0
-333 -332 -330 0
333 -332 330 0
333 332 -330 0
-334 3 0
-334 240 0
334 -3 -240 0
-335 3 240 0
-335 -3 -240 0
335 -3 240 0
335 3 -240 0
-336 330 0
-336 335 0
336 -330 -335 0
-337 -334 0
-337 -336 0
337 334 336 0
-338 4 246 0
-338 -4 -246 0
338 -4 246 0
338 4 -246 0
-339 338 -337 0
-339 -338 337 0
339 -338 -337 0
339 338 337 0
-340 4 0
-340 246 0
340 -4 -246 0
-341 4 246 0
-341 -4 -246 0
341 -4 246 0
341 4 -246 0
-342 -337 0
-342 341 0
342 337 -341 0
-343 -340 0
-343 -342 0
343 340 342 0
-344 5 252 0
-344 -5 -252 0
344 -5 252 0
344 5 -252 0
-345 344 -343 0
-345 -344 343 0
345 -344 -343 0
345 344 343 0
-346 5 0
-346 252 0
346 -5 -252 0
-347 5 252 0
-347 -5 -252 0
347 -5 252 0
347 5 -252 0
-348 -343 0
-348 347 0
348 343 -347 0
-349 -346 0
-349 -348 0
349 346 348 0
-350 6 258 0
-350 -6 -258 0
350 -6 258 0
350 6 -258 0
-351 350 -349 0
-351 -350 349 0
351 -350 -349 0
351 350 349 0
-352 6 0
-352 258 0
352 -6 -258 0
-353 6 258 0
-353 -6 -258 0
353 -6 258 0
353 6 -258 0
-354 -349 0
-354 353 0
354 349 -353 0
-355 -352 0
-355 -354 0
355 352 354 0
-356 7 264 0
-356 -7 -264 0
356 -7 264 0
356 7 -264 0
-357 356 -355 0
-357 -356 355 0
357 -356 -355 0
357 356 355 0
-358 7 0
-358 264 0
358 -7 -264 0
-359 7 264 0
-359 -7 -264 0
359 -7 264 0
359 7 -264 0
-360 -355 0
-360 359 0
360 355 -359 0
-361 -358 0
-361 -360 0
361 358 360 0
-362 8 270 0
-362 -8 -270 0
362 -8 270 0
362 8 -270 0
-363 362 -361 0
-363 -362 361 0
363 -362 -361 0
363 362 361 0
-364 8 0
-364 270 0
364 -8 -270 0
-365 8 270 0
-365 -8 -270 0
365 -8 270 0
365 8 -270 0
-366 -361 0
-366 365 0
366 361 -365 0
-367 -364 0
-367 -366 0
367 364 366 0
-368 9 276 0
-368 -9 -276 0
368 -9 276 0
368 9 -276 0
-369 368 -367 0
-369 -368 367 0
369 -368 -367 0
369 368 367 0
-370 9 0
-370 276 0
370 -9 -276 0
-371 9 276 0
-371 -9 -276 0
371 -9 276 0
371 9 -276 0
-372 -367 0
-372 371 0
372 367 -371 0
-373 -370 0
-373 -372 0
373 370 372 0
-374 10 282 0
-374 -10 -282 0
374 -10 282 0
374 10 -282 0
-375 374 -373 0
-375 -374 373 0
375 -374 -373 0
375 374 373 0
-376 10 0
-376 282 0
376 -10 -282 0
-377 10 282 0
-377 -10 -282 0
377 -10 282 0
377 10 -282 0
-378 -373 0
-378 377 0
378 373 -377 0
-379 -376 0
-379 -378 0
379 376 378 0
-380 11 288 0
-380 -11 -288 0
380 -11 288 0
380 11 -288 0
-381 380 -379 0
-381 -380 379 0
381 -380 -379 0
381 380 379 0
-382 11 0
-382 288 0
382 -11 -288 0
-383 11 288 0
-383 -11 -288 0
383 -11 288 0
383 11 -288 0
-384 -379 0
-384 383 0
384 379 -383 0
-385 -382 0
-385 -384 0
385 382 384 0
-386 12 294 0
-386 -12 -294 0
386 -12 294 0
386 12 -294 0
-387 386 -385 0
-387 -386 385 0
387 -386 -385 0
387 386 385 0
-388 12 0
-388 294 0
388 -12 -294 0
-389 12 294 0
-389 -12 -294 0
389 -12 294 0
389 12 -294 0
-390 -385 0
-390 389 0
390 385 -389 0
-391 -388 0
-391 -390 0
391 388 390 0
-392 13 300 0
-392 -13 -300 0
392 -13 300 0
392 13 -300 0
-393 392 -391 0
-393 -392 391 0
393 -392 -391 0
393 392 391 0
-394 13 0
-394 300 0
394 -13 -300 0
-395 13 300 0
-395 -13 -300 0
395 -13 300 0
395 13 -300 0
-396 -391 0
-396 395 0
396 391 -395 0
-397 -394 0
-397 -396 0
397 394 396 0
-398 14 306 0
-398 -14 -306 0
398 -14 306 0
398 14 -306 0
-399 398 -397 0
-399 -398 397 0
399 -398 -397 0
399 398 397 0
-400 14 0
-400 306 0
400 -14 -306 0
-401 14 306 0
-401 -14 -306 0
401 -14 306 0
401 14 -306 0
-402 -397 0
-402 401 0
402 397 -401 0
-403 -400 0
-403 -402 0
403 400 402 0
-404 15 312 0
-404 -15 -312 0
404 -15 312 0
404 15 -312 0
-405 404 -403 0
-405 -404 403 0
405 -404 -403 0
405 404 403 0
-406 15 0
-406 312 0
406 -15 -312 0
-407 15 312 0
-407 -15 -312 0
407 -15 312 0
407 15 -312 0
-408 -403 0
-408 407 0
408 403 -407 0
-409 -406 0
-409 -408 0
409 406 408 0
-410 16 318 0
-410 -16 -318 0
410 -16 318 0
410 16 -318 0
-411 410 -409 0
-411 -410 409 0
411 -410 -409 0
411 410 409 0
-412 16 0
-412 318 0
412 -16 -318 0
-413 16 318 0
-413 -16 -318 0
413 -16 318 0
413 16 -318 0
-414 -409 0
-414 413 0
414 409 -413 0
-415 -412 0
-415 -414 0
415 412 414 0
-416 17 324 0
-416 -17 -324 0
416 -17 324 0
416 17 -324 0
-417 416 -415 0
-417 -416 415 0
417 -416 -415 0
417 416 415 0
-418 17 0
-418 324 0
418 -17 -324 0
-419 17 324 0
-419 -17 -324 0
419 -17 324 0
419 17 -324 0
-420 -415 0
-420 419 0
420 415 -419 0
-421 -418 0
-421 -420 0
421 418 420 0
-422 143 329 0
-422 -143 -329 0
422 -143 329 0
422 143 -329 0
-423 147 333 0
-423 -147 -333 0
423 -147 333 0
423 147 -333 0
-424 153 339 0
-424 -153 -339 0
424 -153 339 0
424 153 -339 0
-425 159 345 0
-425 -159 -345 0
425 -159 345 0
425 159 -345 0
-426 165 351 0
-426 -165 -351 0
426 -165 351 0
426 165 -351 0
-427 171 357 0
-427 -171 -357 0
427 -171 357 0
427 171 -357 0
-428 177 363 0
-428 -177 -363 0
428 -177 363 0
428 177 -363 0
-429 183 369 0
-429 -183 -369 0
429 -183 369 0
429 183 -369 0
-430 189 375 0
-430 -189 -375 0
430 -189 375 0
430 189 -375 0
-431 195 381 0
-431 -195 -381 0
431 -195 381 0
431 195 -381 0
-432 201 387 0
-432 -201 -387 0
432 -201 387 0
432 201 -387 0
-433 207 393 0
-433 -207 -393 0
433 -207 393 0
433 207 -393 0
-434 213 399 0
-434 -213 -399 0
434 -213 399 0
434 213 -399 0
-435 219 405 0
-435 -219 -405 0
435 -219 405 0
435 219 -405 0
-436 225 411 0
-436 -225 -411 0
436 -225 411 0
436 225 -411 0
-437 231 417 0
-437 -231 -417 0
437 -231 417 0
437 231 -417 0
422 423 424 425 426 427 428 429 430 431 432 433 434 435 436 437 0
