p cnf 264 857
1 0
-17 7 12 0
-17 -7 -12 0
17 -7 12 0
17 7 -12 0
-18 7 0
-18 12 0
18 -7 -12 0
-19 7 12 0
-19 -7 -12 0
19 -7 12 0
19 7 -12 0
-20 8 13 0
-20 -8 -13 0
20 -8 13 0
20 8 -13 0
-21 20 18 0
-21 -20 -18 0
21 -20 18 0
21 20 -18 0
-22 8 0
-22 13 0
22 -8 -13 0
-23 8 13 0
-23 -8 -13 0
23 -8 13 0
23 8 -13 0
-24 18 0
-24 23 0
24 -18 -23 0
-25 -22 0
-25 -24 0
25 22 24 0
-26 9 14 0
-26 -9 -14 0
26 -9 14 0
26 9 -14 0
-27 26 -25 0
-27 -26 25 0
27 -26 -25 0
27 26 25 0
-28 9 0
-28 14 0
28 -9 -14 0
-29 9 14 0
-29 -9 -14 0
29 -9 14 0
29 9 -14 0
-30 -25 0
-30 29 0
30 25 -29 0
-31 -28 0
-31 -30 0
31 28 30 0
-32 10 15 0
-32 -10 -15 0
32 -10 15 0
32 10 -15 0
-33 32 -31 0
-33 -32 31 0
33 -32 -31 0
33 32 31 0
-34 10 0
-34 15 0
34 -10 -15 0
-35 10 15 0
-35 -10 -15 0
35 -10 15 0
35 10 -15 0
-36 -31 0
-36 35 0
36 31 -35 0
-37 -34 0
-37 -36 0
37 34 36 0
-38 11 16 0
-38 -11 -16 0
38 -11 16 0
38 11 -16 0
-39 38 -37 0
-39 -38 37 0
39 -38 -37 0
39 38 37 0
-40 11 0
-40 16 0
40 -11 -16 0
-41 11 16 0
-41 -11 -16 0
41 -11 16 0
41 11 -16 0
-42 -37 0
-42 41 0
42 37 -41 0
-43 -40 0
-43 -42 0
43 40 42 0
-44 2 0
-44 17 0
44 -2 -17 0
-45 3 0
-45 17 0
45 -3 -17 0
-46 4 0
-46 17 0
46 -4 -17 0
-47 5 0
-47 17 0
47 -5 -17 0
-48 6 0
-48 17 0
48 -6 -17 0
-49 2 0
-49 21 0
49 -2 -21 0
-50 3 0
-50 21 0
50 -3 -21 0
-51 4 0
-51 21 0
51 -4 -21 0
-52 5 0
-52 21 0
52 -5 -21 0
-53 45 49 0
-53 -45 -49 0
53 -45 49 0
53 45 -49 0
-54 45 0
-54 49 0
54 -45 -49 0
-55 45 49 0
-55 -45 -49 0
55 -45 49 0
55 45 -49 0
-56 46 50 0
-56 -46 -50 0
56 -46 50 0
56 46 -50 0
-57 56 54 0
-57 -56 -54 0
57 -56 54 0
57 56 -54 0
-58 46 0
-58 50 0
58 -46 -50 0
-59 46 50 0
-59 -46 -50 0
59 -46 50 0
59 46 -50 0
-60 54 0
-60 59 0
60 -54 -59 0
-61 -58 0
-61 -60 0
61 58 60 0
-62 47 51 0
-62 -47 -51 0
62 -47 51 0
62 47 -51 0
-63 62 -61 0
-63 -62 61 0
63 -62 -61 0
63 62 61 0
-64 47 0
-64 51 0
64 -47 -51 0
-65 47 51 0
-65 -47 -51 0
65 -47 51 0
65 47 -51 0
-66 -61 0
-66 65 0
66 61 -65 0
-67 -64 0
-67 -66 0
67 64 66 0
-68 48 52 0
-68 -48 -52 0
68 -48 52 0
68 48 -52 0
-69 68 -67 0
-69 -68 67 0
69 -68 -67 0
69 68 67 0
-70 48 0
-70 52 0
70 -48 -52 0
-71 48 52 0
-71 -48 -52 0
71 -48 52 0
71 48 -52 0
-72 -67 0
-72 71 0
72 67 -71 0
-73 -70 0
-73 -72 0
73 70 72 0
-74 2 0
-74 27 0
74 -2 -27 0
-75 3 0
-75 27 0
75 -3 -27 0
-76 4 0
-76 27 0
76 -4 -27 0
-77 57 74 0
-77 -57 -74 0
77 -57 74 0
77 57 -74 0
-78 57 0
-78 74 0
78 -57 -74 0
-79 57 74 0
-79 -57 -74 0
79 -57 74 0
79 57 -74 0
-80 63 75 0
-80 -63 -75 0
80 -63 75 0
80 63 -75 0
-81 80 78 0
-81 -80 -78 0
81 -80 78 0
81 80 -78 0
-82 63 0
-82 75 0
82 -63 -75 0
-83 63 75 0
-83 -63 -75 0
83 -63 75 0
83 63 -75 0
-84 78 0
-84 83 0
84 -78 -83 0
-85 -82 0
-85 -84 0
85 82 84 0
-86 69 76 0
-86 -69 -76 0
86 -69 76 0
86 69 -76 0
-87 86 -85 0
-87 -86 85 0
87 -86 -85 0
87 86 85 0
-88 69 0
-88 76 0
88 -69 -76 0
-89 69 76 0
-89 -69 -76 0
89 -69 76 0
89 69 -76 0
-90 -85 0
-90 89 0
90 85 -89 0
-91 -88 0
-91 -90 0
91 88 90 0
-92 2 0
-92 33 0
92 -2 -33 0
-93 3 0
-93 33 0
93 -3 -33 0
-94 81 92 0
-94 -81 -92 0
94 -81 92 0
94 81 -92 0
-95 81 0
-95 92 0
95 -81 -92 0
-96 81 92 0
-96 -81 -92 0
96 -81 92 0
96 81 -92 0
-97 87 93 0
-97 -87 -93 0
97 -87 93 0
97 87 -93 0
-98 97 95 0
-98 -97 -95 0
98 -97 95 0
98 97 -95 0
-99 87 0
-99 93 0
99 -87 -93 0
-100 87 93 0
-100 -87 -93 0
100 -87 93 0
100 87 -93 0
-101 95 0
-101 100 0
101 -95 -100 0
-102 -99 0
-102 -101 0
102 99 101 0
-103 2 0
-103 39 0
103 -2 -39 0
-104 98 103 0
-104 -98 -103 0
104 -98 103 0
104 98 -103 0
-105 98 0
-105 103 0
105 -98 -103 0
-106 98 103 0
-106 -98 -103 0
106 -98 103 0
106 98 -103 0
-107 2 0
-107 7 0
107 -2 -7 0
-108 3 0
-108 7 0
108 -3 -7 0
-109 4 0
-109 7 0
109 -4 -7 0
-110 5 0
-110 7 0
110 -5 -7 0
-111 6 0
-111 7 0
111 -6 -7 0
-112 2 0
-112 8 0
112 -2 -8 0
-113 3 0
-113 8 0
113 -3 -8 0
-114 4 0
-114 8 0
114 -4 -8 0
-115 5 0
-115 8 0
115 -5 -8 0
-116 108 112 0
-116 -108 -112 0
116 -108 112 0
116 108 -112 0
-117 108 0
-117 112 0
117 -108 -112 0
-118 108 112 0
-118 -108 -112 0
118 -108 112 0
118 108 -112 0
-119 109 113 0
-119 -109 -113 0
119 -109 113 0
119 109 -113 0
-120 119 117 0
-120 -119 -117 0
120 -119 117 0
120 119 -117 0
-121 109 0
-121 113 0
121 -109 -113 0
-122 109 113 0
-122 -109 -113 0
122 -109 113 0
122 109 -113 0
-123 117 0
-123 122 0
123 -117 -122 0
-124 -121 0
-124 -123 0
124 121 123 0
-125 110 114 0
-125 -110 -114 0
125 -110 114 0
125 110 -114 0
-126 125 -124 0
-126 -125 124 0
126 -125 -124 0
126 125 124 0
-127 110 0
-127 114 0
127 -110 -114 0
-128 110 114 0
-128 -110 -114 0
128 -110 114 0
128 110 -114 0
-129 -124 0
-129 128 0
129 124 -128 0
-130 -127 0
-130 -129 0
130 127 129 0
-131 111 115 0
-131 -111 -115 0
131 -111 115 0
131 111 -115 0
-132 131 -130 0
-132 -131 130 0
132 -131 -130 0
132 131 130 0
-133 111 0
-133 115 0
133 -111 -115 0
-134 111 115 0
-134 -111 -115 0
134 -111 115 0
134 111 -115 0
-135 -130 0
-135 134 0
135 130 -134 0
-136 -133 0
-136 -135 0
136 133 135 0
-137 2 0
-137 9 0
137 -2 -9 0
-138 3 0
-138 9 0
138 -3 -9 0
-139 4 0
-139 9 0
139 -4 -9 0
-140 120 137 0
-140 -120 -137 0
140 -120 137 0
140 120 -137 0
-141 120 0
-141 137 0
141 -120 -137 0
-142 120 137 0
-142 -120 -137 0
142 -120 137 0
142 120 -137 0
-143 126 138 0
-143 -126 -138 0
143 -126 138 0
143 126 -138 0
-144 143 141 0
-144 -143 -141 0
144 -143 141 0
144 143 -141 0
-145 126 0
-145 138 0
145 -126 -138 0
-146 126 138 0
-146 -126 -138 0
146 -126 138 0
146 126 -138 0
-147 141 0
-147 146 0
147 -141 -146 0
-148 -145 0
-148 -147 0
148 145 147 0
-149 132 139 0
-149 -132 -139 0
149 -132 139 0
149 132 -139 0
-150 149 -148 0
-150 -149 148 0
150 -149 -148 0
150 149 148 0
-151 132 0
-151 139 0
151 -132 -139 0
-152 132 139 0
-152 -132 -139 0
152 -132 139 0
152 132 -139 0
-153 -148 0
-153 152 0
153 148 -152 0
-154 -151 0
-154 -153 0
154 151 153 0
-155 2 0
-155 10 0
155 -2 -10 0
-156 3 0
-156 10 0
156 -3 -10 0
-157 144 155 0
-157 -144 -155 0
157 -144 155 0
157 144 -155 0
-158 144 0
-158 155 0
158 -144 -155 0
-159 144 155 0
-159 -144 -155 0
159 -144 155 0
159 144 -155 0
-160 150 156 0
-160 -150 -156 0
160 -150 156 0
160 150 -156 0
-161 160 158 0
-161 -160 -158 0
161 -160 158 0
161 160 -158 0
-162 150 0
-162 156 0
162 -150 -156 0
-163 150 156 0
-163 -150 -156 0
163 -150 156 0
163 150 -156 0
-164 158 0
-164 163 0
164 -158 -163 0
-165 -162 0
-165 -164 0
165 162 164 0
-166 2 0
-166 11 0
166 -2 -11 0
-167 161 166 0
-167 -161 -166 0
167 -161 166 0
167 161 -166 0
-168 161 0
-168 166 0
168 -161 -166 0
-169 161 166 0
-169 -161 -166 0
169 -161 166 0
169 161 -166 0
-170 2 0
-170 12 0
170 -2 -12 0
-171 3 0
-171 12 0
171 -3 -12 0
-172 4 0
-172 12 0
172 -4 -12 0
-173 5 0
-173 12 0
173 -5 -12 0
-174 6 0
-174 12 0
174 -6 -12 0
-175 2 0
-175 13 0
175 -2 -13 0
-176 3 0
-176 13 0
176 -3 -13 0
-177 4 0
-177 13 0
177 -4 -13 0
-178 5 0
-178 13 0
178 -5 -13 0
-179 171 175 0
-179 -171 -175 0
179 -171 175 0
179 171 -175 0
-180 171 0
-180 175 0
180 -171 -175 0
-181 171 175 0
-181 -171 -175 0
181 -171 175 0
181 171 -175 0
-182 172 176 0
-182 -172 -176 0
182 -172 176 0
182 172 -176 0
-183 182 180 0
-183 -182 -180 0
183 -182 180 0
183 182 -180 0
-184 172 0
-184 176 0
184 -172 -176 0
-185 172 176 0
-185 -172 -176 0
185 -172 176 0
185 172 -176 0
-186 180 0
-186 185 0
186 -180 -185 0
-187 -184 0
-187 -186 0
187 184 186 0
-188 173 177 0
-188 -173 -177 0
188 -173 177 0
188 173 -177 0
-189 188 -187 0
-189 -188 187 0
189 -188 -187 0
189 188 187 0
-190 173 0
-190 177 0
190 -173 -177 0
-191 173 177 0
-191 -173 -177 0
191 -173 177 0
191 173 -177 0
-192 -187 0
-192 191 0
192 187 -191 0
-193 -190 0
-193 -192 0
193 190 192 0
-194 174 178 0
-194 -174 -178 0
194 -174 178 0
194 174 -178 0
-195 194 -193 0
-195 -194 193 0
195 -194 -193 0
195 194 193 0
-196 174 0
-196 178 0
196 -174 -178 0
-197 174 178 0
-197 -174 -178 0
197 -174 178 0
197 174 -178 0
-198 -193 0
-198 197 0
198 193 -197 0
-199 -196 0
-199 -198 0
199 196 198 0
-200 2 0
-200 14 0
200 -2 -14 0
-201 3 0
-201 14 0
201 -3 -14 0
-202 4 0
-202 14 0
202 -4 -14 0
-203 183 200 0
-203 -183 -200 0
203 -183 200 0
203 183 -200 0
-204 183 0
-204 200 0
204 -183 -200 0
-205 183 200 0
-205 -183 -200 0
205 -183 200 0
205 183 -200 0
-206 189 201 0
-206 -189 -201 0
206 -189 201 0
206 189 -201 0
-207 206 204 0
-207 -206 -204 0
207 -206 204 0
207 206 -204 0
-208 189 0
-208 201 0
208 -189 -201 0
-209 189 201 0
-209 -189 -201 0
209 -189 201 0
209 189 -201 0
-210 204 0
-210 209 0
210 -204 -209 0
-211 -208 0
-211 -210 0
211 208 210 0
-212 195 202 0
-212 -195 -202 0
212 -195 202 0
212 195 -202 0
-213 212 -211 0
-213 -212 211 0
213 -212 -211 0
213 212 211 0
-214 195 0
-214 202 0
214 -195 -202 0
-215 195 202 0
-215 -195 -202 0
215 -195 202 0
215 195 -202 0
-216 -211 0
-216 215 0
216 211 -215 0
-217 -214 0
-217 -216 0
217 214 216 0
-218 2 0
-218 15 0
218 -2 -15 0
-219 3 0
-219 15 0
219 -3 -15 0
-220 207 218 0
-220 -207 -218 0
220 -207 218 0
220 207 -218 0
-221 207 0
-221 218 0
221 -207 -218 0
-222 207 218 0
-222 -207 -218 0
222 -207 218 0
222 207 -218 0
-223 213 219 0
-223 -213 -219 0
223 -213 219 0
223 213 -219 0
-224 223 221 0
-224 -223 -221 0
224 -223 221 0
224 223 -221 0
-225 213 0
-225 219 0
225 -213 -219 0
-226 213 219 0
-226 -213 -219 0
226 -213 219 0
226 213 -219 0
-227 221 0
-227 226 0
227 -221 -226 0
-228 -225 0
-228 -227 0
228 225 227 0
-229 2 0
-229 16 0
229 -2 -16 0
-230 224 229 0
-230 -224 -229 0
230 -224 229 0
230 224 -229 0
-231 224 0
-231 229 0
231 -224 -229 0
-232 224 229 0
-232 -224 -229 0
232 -224 229 0
232 224 -229 0
-233 107 170 0
-233 -107 -170 0
233 -107 170 0
233 107 -170 0
-234 107 0
-234 170 0
234 -107 -170 0
-235 107 170 0
-235 -107 -170 0
235 -107 170 0
235 107 -170 0
-236 116 179 0
-236 -116 -179 0
236 -116 179 0
236 116 -179 0
-237 236 234 0
-237 -236 -234 0
237 -236 234 0
237 236 -234 0
-238 116 0
-238 179 0
238 -116 -179 0
-239 116 179 0
-239 -116 -179 0
239 -116 179 0
239 116 -179 0
-240 234 0
-240 239 0
240 -234 -239 0
-241 -238 0
-241 -240 0
241 238 240 0
-242 140 203 0
-242 -140 -203 0
242 -140 203 0
242 140 -203 0
-243 242 -241 0
-243 -242 241 0
243 -242 -241 0
243 242 241 0
-244 140 0
-244 203 0
244 -140 -203 0
-245 140 203 0
-245 -140 -203 0
245 -140 203 0
245 140 -203 0
-246 -241 0
-246 245 0
246 241 -245 0
-247 -244 0
-247 -246 0
247 244 246 0
-248 157 220 0
-248 -157 -220 0
248 -157 220 0
248 157 -220 0
-249 248 -247 0
-249 -248 247 0
249 -248 -247 0
249 248 247 0
-250 157 0
-250 220 0
250 -157 -220 0
-251 157 220 0
-251 -157 -220 0
251 -157 220 0
251 157 -220 0
-252 -247 0
-252 251 0
252 247 -251 0
-253 -250 0
-253 -252 0
253 250 252 0
-254 167 230 0
-254 -167 -230 0
254 -167 230 0
254 167 -230 0
-255 254 -253 0
-255 -254 253 0
255 -254 -253 0
255 254 253 0
-256 167 0
-256 230 0
256 -167 -230 0
-257 167 230 0
-257 -167 -230 0
257 -167 230 0
257 167 -230 0
-258 -253 0
-258 257 0
258 253 -257 0
-259 -256 0
-259 -258 0
259 256 258 0
-260 44 233 0
-260 -44 -233 0
260 -44 233 0
260 44 -233 0
-261 53 237 0
-261 -53 -237 0
261 -53 237 0
261 53 -237 0
-262 77 243 0
-262 -77 -243 0
262 -77 243 0
262 77 -243 0
-263 94 249 0
-263 -94 -249 0
263 -94 249 0
263 94 -249 0
-264 104 255 0
-264 -104 -255 0
264 -104 255 0
264 104 -255 0
260 261 262 263 264 0
