p cnf 170 544
1 0
-14 6 10 0
-14 -6 -10 0
14 -6 10 0
14 6 -10 0
-15 6 0
-15 10 0
15 -6 -10 0
-16 6 10 0
-16 -6 -10 0
16 -6 10 0
16 6 -10 0
-17 7 11 0
-17 -7 -11 0
17 -7 11 0
17 7 -11 0
-18 17 15 0
-18 -17 -15 0
18 -17 15 0
18 17 -15 0
-19 7 0
-19 11 0
19 -7 -11 0
-20 7 11 0
-20 -7 -11 0
20 -7 11 0
20 7 -11 0
-21 15 0
-21 20 0
21 -15 -20 0
-22 -19 0
-22 -21 0
22 19 21 0
-23 8 12 0
-23 -8 -12 0
23 -8 12 0
23 8 -12 0
-24 23 -22 0
-24 -23 22 0
24 -23 -22 0
24 23 22 0
-25 8 0
-25 12 0
25 -8 -12 0
-26 8 12 0
-26 -8 -12 0
26 -8 12 0
26 8 -12 0
-27 -22 0
-27 26 0
27 22 -26 0
-28 -25 0
-28 -27 0
28 25 27 0
-29 9 13 0
-29 -9 -13 0
29 -9 13 0
29 9 -13 0
-30 29 -28 0
-30 -29 28 0
30 -29 -28 0
30 29 28 0
-31 9 0
-31 13 0
31 -9 -13 0
-32 9 13 0
-32 -9 -13 0
32 -9 13 0
32 9 -13 0
-33 -28 0
-33 32 0
33 28 -32 0
-34 -31 0
-34 -33 0
34 31 33 0
-35 2 0
-35 14 0
35 -2 -14 0
-36 3 0
-36 14 0
36 -3 -14 0
-37 4 0
-37 14 0
37 -4 -14 0
-38 5 0
-38 14 0
38 -5 -14 0
-39 2 0
-39 18 0
39 -2 -18 0
-40 3 0
-40 18 0
40 -3 -18 0
-41 4 0
-41 18 0
41 -4 -18 0
-42 36 39 0
-42 -36 -39 0
42 -36 39 0
42 36 -39 0
-43 36 0
-43 39 0
43 -36 -39 0
-44 36 39 0
-44 -36 -39 0
44 -36 39 0
44 36 -39 0
-45 37 40 0
-45 -37 -40 0
45 -37 40 0
45 37 -40 0
-46 45 43 0
-46 -45 -43 0
46 -45 43 0
46 45 -43 0
-47 37 0
-47 40 0
47 -37 -40 0
-48 37 40 0
-48 -37 -40 0
48 -37 40 0
48 37 -40 0
-49 43 0
-49 48 0
49 -43 -48 0
-50 -47 0
-50 -49 0
50 47 49 0
-51 38 41 0
-51 -38 -41 0
51 -38 41 0
51 38 -41 0
-52 51 -50 0
-52 -51 50 0
52 -51 -50 0
52 51 50 0
-53 38 0
-53 41 0
53 -38 -41 0
-54 38 41 0
-54 -38 -41 0
54 -38 41 0
54 38 -41 0
-55 -50 0
-55 54 0
55 50 -54 0
-56 -53 0
-56 -55 0
56 53 55 0
-57 2 0
-57 24 0
57 -2 -24 0
-58 3 0
-58 24 0
58 -3 -24 0
-59 46 57 0
-59 -46 -57 0
59 -46 57 0
59 46 -57 0
-60 46 0
-60 57 0
60 -46 -57 0
-61 46 57 0
-61 -46 -57 0
61 -46 57 0
61 46 -57 0
-62 52 58 0
-62 -52 -58 0
62 -52 58 0
62 52 -58 0
-63 62 60 0
-63 -62 -60 0
63 -62 60 0
63 62 -60 0
-64 52 0
-64 58 0
64 -52 -58 0
-65 52 58 0
-65 -52 -58 0
65 -52 58 0
65 52 -58 0
-66 60 0
-66 65 0
66 -60 -65 0
-67 -64 0
-67 -66 0
67 64 66 0
-68 2 0
-68 30 0
68 -2 -30 0
-69 63 68 0
-69 -63 -68 0
69 -63 68 0
69 63 -68 0
-70 63 0
-70 68 0
70 -63 -68 0
-71 63 68 0
-71 -63 -68 0
71 -63 68 0
71 63 -68 0
-72 2 0
-72 6 0
72 -2 -6 0
-73 3 0
-73 6 0
73 -3 -6 0
-74 4 0
-74 6 0
74 -4 -6 0
-75 5 0
-75 6 0
75 -5 -6 0
-76 2 0
-76 7 0
76 -2 -7 0
-77 3 0
-77 7 0
77 -3 -7 0
-78 4 0
-78 7 0
78 -4 -7 0
-79 73 76 0
-79 -73 -76 0
79 -73 76 0
79 73 -76 0
-80 73 0
-80 76 0
80 -73 -76 0
-81 73 76 0
-81 -73 -76 0
81 -73 76 0
81 73 -76 0
-82 74 77 0
-82 -74 -77 0
82 -74 77 0
82 74 -77 0
-83 82 80 0
-83 -82 -80 0
83 -82 80 0
83 82 -80 0
-84 74 0
-84 77 0
84 -74 -77 0
-85 74 77 0
-85 -74 -77 0
85 -74 77 0
85 74 -77 0
-86 80 0
-86 85 0
86 -80 -85 0
-87 -84 0
-87 -86 0
87 84 86 0
-88 75 78 0
-88 -75 -78 0
88 -75 78 0
88 75 -78 0
-89 88 -87 0
-89 -88 87 0
89 -88 -87 0
89 88 87 0
-90 75 0
-90 78 0
90 -75 -78 0
-91 75 78 0
-91 -75 -78 0
91 -75 78 0
91 75 -78 0
-92 -87 0
-92 91 0
92 87 -91 0
-93 -90 0
-93 -92 0
93 90 92 0
-94 2 0
-94 8 0
94 -2 -8 0
-95 3 0
-95 8 0
95 -3 -8 0
-96 83 94 0
-96 -83 -94 0
96 -83 94 0
96 83 -94 0
-97 83 0
-97 94 0
97 -83 -94 0
-98 83 94 0
-98 -83 -94 0
98 -83 94 0
98 83 -94 0
-99 89 95 0
-99 -89 -95 0
99 -89 95 0
99 89 -95 0
-100 99 97 0
-100 -99 -97 0
100 -99 97 0
100 99 -97 0
-101 89 0
-101 95 0
101 -89 -95 0
-102 89 95 0
-102 -89 -95 0
102 -89 95 0
102 89 -95 0
-103 97 0
-103 102 0
103 -97 -102 0
-104 -101 0
-104 -103 0
104 101 103 0
-105 2 0
-105 9 0
105 -2 -9 0
-106 100 105 0
-106 -100 -105 0
106 -100 105 0
106 100 -105 0
-107 100 0
-107 105 0
107 -100 -105 0
-108 100 105 0
-108 -100 -105 0
108 -100 105 0
108 100 -105 0
-109 2 0
-109 10 0
109 -2 -10 0
-110 3 0
-110 10 0
110 -3 -10 0
-111 4 0
-111 10 0
111 -4 -10 0
-112 5 0
-112 10 0
112 -5 -10 0
-113 2 0
-113 11 0
113 -2 -11 0
-114 3 0
-114 11 0
114 -3 -11 0
-115 4 0
-115 11 0
115 -4 -11 0
-116 110 113 0
-116 -110 -113 0
116 -110 113 0
116 110 -113 0
-117 110 0
-117 113 0
117 -110 -113 0
-118 110 113 0
-118 -110 -113 0
118 -110 113 0
118 110 -113 0
-119 111 114 0
-119 -111 -114 0
119 -111 114 0
119 111 -114 0
-120 119 117 0
-120 -119 -117 0
120 -119 117 0
120 119 -117 0
-121 111 0
-121 114 0
121 -111 -114 0
-122 111 114 0
-122 -111 -114 0
122 -111 114 0
122 111 -114 0
-123 117 0
-123 122 0
123 -117 -122 0
-124 -121 0
-124 -123 0
124 121 123 0
-125 112 115 0
-125 -112 -115 0
125 -112 115 0
125 112 -115 0
-126 125 -124 0
-126 -125 124 0
126 -125 -124 0
126 125 124 0
-127 112 0
-127 115 0
127 -112 -115 0
-128 112 115 0
-128 -112 -115 0
128 -112 115 0
128 112 -115 0
-129 -124 0
-129 128 0
129 124 -128 0
-130 -127 0
-130 -129 0
130 127 129 0
-131 2 0
-131 12 0
131 -2 -12 0
-132 3 0
-132 12 0
132 -3 -12 0
-133 120 131 0
-133 -120 -131 0
133 -120 131 0
133 120 -131 0
-134 120 0
-134 131 0
134 -120 -131 0
-135 120 131 0
-135 -120 -131 0
135 -120 131 0
135 120 -131 0
-136 126 132 0
-136 -126 -132 0
136 -126 132 0
136 126 -132 0
-137 136 134 0
-137 -136 -134 0
137 -136 134 0
137 136 -134 0
-138 126 0
-138 132 0
138 -126 -132 0
-139 126 132 0
-139 -126 -132 0
139 -126 132 0
139 126 -132 0
-140 134 0
-140 139 0
140 -134 -139 0
-141 -138 0
-141 -140 0
141 138 140 0
-142 2 0
-142 13 0
142 -2 -13 0
-143 137 142 0
-143 -137 -142 0
143 -137 142 0
143 137 -142 0
-144 137 0
-144 142 0
144 -137 -142 0
-145 137 142 0
-145 -137 -142 0
145 -137 142 0
145 137 -142 0
-146 72 109 0
-146 -72 -109 0
146 -72 109 0
146 72 -109 0
-147 72 0
-147 109 0
147 -72 -109 0
-148 72 109 0
-148 -72 -109 0
148 -72 109 0
148 72 -109 0
-149 79 116 0
-149 -79 -116 0
149 -79 116 0
149 79 -116 0
-150 149 147 0
-150 -149 -147 0
150 -149 147 0
150 149 -147 0
-151 79 0
-151 116 0
151 -79 -116 0
-152 79 116 0
-152 -79 -116 0
152 -79 116 0
152 79 -116 0
-153 147 0
-153 152 0
153 -147 -152 0
-154 -151 0
-154 -153 0
154 151 153 0
-155 96 133 0
-155 -96 -133 0
155 -96 133 0
155 96 -133 0
-156 155 -154 0
-156 -155 154 0
156 -155 -154 0
156 155 154 0
-157 96 0
-157 133 0
157 -96 -133 0
-158 96 133 0
-158 -96 -133 0
158 -96 133 0
158 96 -133 0
-159 -154 0
-159 158 0
159 154 -158 0
-160 -157 0
-160 -159 0
160 157 159 0
-161 106 143 0
-161 -106 -143 0
161 -106 143 0
161 106 -143 0
-162 161 -160 0
-162 -161 160 0
162 -161 -160 0
162 161 160 0
-163 106 0
-163 143 0
163 -106 -143 0
-164 106 143 0
-164 -106 -143 0
164 -106 143 0
164 106 -143 0
-165 -160 0
-165 164 0
165 160 -164 0
-166 -163 0
-166 -165 0
166 163 165 0
-167 35 146 0
-167 -35 -146 0
167 -35 146 0
167 35 -146 0
-168 42 150 0
-168 -42 -150 0
168 -42 150 0
168 42 -150 0
-169 59 156 0
-169 -59 -156 0
169 -59 156 0
169 59 -156 0
-170 69 162 0
-170 -69 -162 0
170 -69 162 0
170 69 -162 0
167 168 169 170 0
