p cnf 379 1242
1 0
-20 8 14 0
-20 -8 -14 0
20 -8 14 0
20 8 -14 0
-21 8 0
-21 14 0
21 -8 -14 0
-22 8 14 0
-22 -8 -14 0
22 -8 14 0
22 8 -14 0
-23 9 15 0
-23 -9 -15 0
23 -9 15 0
23 9 -15 0
-24 23 21 0
-24 -23 -21 0
24 -23 21 0
24 23 -21 0
-25 9 0
-25 15 0
25 -9 -15 0
-26 9 15 0
-26 -9 -15 0
26 -9 15 0
26 9 -15 0
-27 21 0
-27 26 0
27 -21 -26 0
-28 -25 0
-28 -27 0
28 25 27 0
-29 10 16 0
-29 -10 -16 0
29 -10 16 0
29 10 -16 0
-30 29 -28 0
-30 -29 28 0
30 -29 -28 0
30 29 28 0
-31 10 0
-31 16 0
31 -10 -16 0
-32 10 16 0
-32 -10 -16 0
32 -10 16 0
32 10 -16 0
-33 -28 0
-33 32 0
33 28 -32 0
-34 -31 0
-34 -33 0
34 31 33 0
-35 11 17 0
-35 -11 -17 0
35 -11 17 0
35 11 -17 0
-36 35 -34 0
-36 -35 34 0
36 -35 -34 0
36 35 34 0
-37 11 0
-37 17 0
37 -11 -17 0
-38 11 17 0
-38 -11 -17 0
38 -11 17 0
38 11 -17 0
-39 -34 0
-39 38 0
39 34 -38 0
-40 -37 0
-40 -39 0
40 37 39 0
-41 12 18 0
-41 -12 -18 0
41 -12 18 0
41 12 -18 0
-42 41 -40 0
-42 -41 40 0
42 -41 -40 0
42 41 40 0
-43 12 0
-43 18 0
43 -12 -18 0
-44 12 18 0
-44 -12 -18 0
44 -12 18 0
44 12 -18 0
-45 -40 0
-45 44 0
45 40 -44 0
-46 -43 0
-46 -45 0
46 43 45 0
-47 13 19 0
-47 -13 -19 0
47 -13 19 0
47 13 -19 0
-48 47 -46 0
-48 -47 46 0
48 -47 -46 0
48 47 46 0
-49 13 0
-49 19 0
49 -13 -19 0
-50 13 19 0
-50 -13 -19 0
50 -13 19 0
50 13 -19 0
-51 -46 0
-51 50 0
51 46 -50 0
-52 -49 0
-52 -51 0
52 49 51 0
-53 2 0
-53 20 0
53 -2 -20 0
-54 3 0
-54 20 0
54 -3 -20 0
-55 4 0
-55 20 0
55 -4 -20 0
-56 5 0
-56 20 0
56 -5 -20 0
-57 6 0
-57 20 0
57 -6 -20 0
-58 7 0
-58 20 0
58 -7 -20 0
-59 2 0
-59 24 0
59 -2 -24 0
-60 3 0
-60 24 0
60 -3 -24 0
-61 4 0
-61 24 0
61 -4 -24 0
-62 5 0
-62 24 0
62 -5 -24 0
-63 6 0
-63 24 0
63 -6 -24 0
-64 54 59 0
-64 -54 -59 0
64 -54 59 0
64 54 -59 0
-65 54 0
-65 59 0
65 -54 -59 0
-66 54 59 0
-66 -54 -59 0
66 -54 59 0
66 54 -59 0
-67 55 60 0
-67 -55 -60 0
67 -55 60 0
67 55 -60 0
-68 67 65 0
-68 -67 -65 0
68 -67 65 0
68 67 -65 0
-69 55 0
-69 60 0
69 -55 -60 0
-70 55 60 0
-70 -55 -60 0
70 -55 60 0
70 55 -60 0
-71 65 0
-71 70 0
71 -65 -70 0
-72 -69 0
-72 -71 0
72 69 71 0
-73 56 61 0
-73 -56 -61 0
73 -56 61 0
73 56 -61 0
-74 73 -72 0
-74 -73 72 0
74 -73 -72 0
74 73 72 0
-75 56 0
-75 61 0
75 -56 -61 0
-76 56 61 0
-76 -56 -61 0
76 -56 61 0
76 56 -61 0
-77 -72 0
-77 76 0
77 72 -76 0
-78 -75 0
-78 -77 0
78 75 77 0
-79 57 62 0
-79 -57 -62 0
79 -57 62 0
79 57 -62 0
-80 79 -78 0
-80 -79 78 0
80 -79 -78 0
80 79 78 0
-81 57 0
-81 62 0
81 -57 -62 0
-82 57 62 0
-82 -57 -62 0
82 -57 62 0
82 57 -62 0
-83 -78 0
-83 82 0
83 78 -82 0
-84 -81 0
-84 -83 0
84 81 83 0
-85 58 63 0
-85 -58 -63 0
85 -58 63 0
85 58 -63 0
-86 85 -84 0
-86 -85 84 0
86 -85 -84 0
86 85 84 0
-87 58 0
-87 63 0
87 -58 -63 0
-88 58 63 0
-88 -58 -63 0
88 -58 63 0
88 58 -63 0
-89 -84 0
-89 88 0
89 84 -88 0
-90 -87 0
-90 -89 0
90 87 89 0
-91 2 0
-91 30 0
91 -2 -30 0
-92 3 0
-92 30 0
92 -3 -30 0
-93 4 0
-93 30 0
93 -4 -30 0
-94 5 0
-94 30 0
94 -5 -30 0
-95 68 91 0
-95 -68 -91 0
95 -68 91 0
95 68 -91 0
-96 68 0
-96 91 0
96 -68 -91 0
-97 68 91 0
-97 -68 -91 0
97 -68 91 0
97 68 -91 0
-98 74 92 0
-98 -74 -92 0
98 -74 92 0
98 74 -92 0
-99 98 96 0
-99 -98 -96 0
99 -98 96 0
99 98 -96 0
-100 74 0
-100 92 0
100 -74 -92 0
-101 74 92 0
-101 -74 -92 0
101 -74 92 0
101 74 -92 0
-102 96 0
-102 101 0
102 -96 -101 0
-103 -100 0
-103 -102 0
103 100 102 0
-104 80 93 0
-104 -80 -93 0
104 -80 93 0
104 80 -93 0
-105 104 -103 0
-105 -104 103 0
105 -104 -103 0
105 104 103 0
-106 80 0
-106 93 0
106 -80 -93 0
-107 80 93 0
-107 -80 -93 0
107 -80 93 0
107 80 -93 0
-108 -103 0
-108 107 0
108 103 -107 0
-109 -106 0
-109 -108 0
109 106 108 0
-110 86 94 0
-110 -86 -94 0
110 -86 94 0
110 86 -94 0
-111 110 -109 0
-111 -110 109 0
111 -110 -109 0
111 110 109 0
-112 86 0
-112 94 0
112 -86 -94 0
-113 86 94 0
-113 -86 -94 0
113 -86 94 0
113 86 -94 0
-114 -109 0
-114 113 0
114 109 -113 0
-115 -112 0
-115 -114 0
115 112 114 0
-116 2 0
-116 36 0
116 -2 -36 0
-117 3 0
-117 36 0
117 -3 -36 0
-118 4 0
-118 36 0
118 -4 -36 0
-119 99 116 0
-119 -99 -116 0
119 -99 116 0
119 99 -116 0
-120 99 0
-120 116 0
120 -99 -116 0
-121 99 116 0
-121 -99 -116 0
121 -99 116 0
121 99 -116 0
-122 105 117 0
-122 -105 -117 0
122 -105 117 0
122 105 -117 0
-123 122 120 0
-123 -122 -120 0
123 -122 120 0
123 122 -120 0
-124 105 0
-124 117 0
124 -105 -117 0
-125 105 117 0
-125 -105 -117 0
125 -105 117 0
125 105 -117 0
-126 120 0
-126 125 0
126 -120 -125 0
-127 -124 0
-127 -126 0
127 124 126 0
-128 111 118 0
-128 -111 -118 0
128 -111 118 0
128 111 -118 0
-129 128 -127 0
-129 -128 127 0
129 -128 -127 0
129 128 127 0
-130 111 0
-130 118 0
130 -111 -118 0
-131 111 118 0
-131 -111 -118 0
131 -111 118 0
131 111 -118 0
-132 -127 0
-132 131 0
132 127 -131 0
-133 -130 0
-133 -132 0
133 130 132 0
-134 2 0
-134 42 0
134 -2 -42 0
-135 3 0
-135 42 0
135 -3 -42 0
-136 123 134 0
-136 -123 -134 0
136 -123 134 0
136 123 -134 0
-137 123 0
-137 134 0
137 -123 -134 0
-138 123 134 0
-138 -123 -134 0
138 -123 134 0
138 123 -134 0
-139 129 135 0
-139 -129 -135 0
139 -129 135 0
139 129 -135 0
-140 139 137 0
-140 -139 -137 0
140 -139 137 0
140 139 -137 0
-141 129 0
-141 135 0
141 -129 -135 0
-142 129 135 0
-142 -129 -135 0
142 -129 135 0
142 129 -135 0
-143 137 0
-143 142 0
143 -137 -142 0
-144 -141 0
-144 -143 0
144 141 143 0
-145 2 0
-145 48 0
145 -2 -48 0
-146 140 145 0
-146 -140 -145 0
146 -140 145 0
146 140 -145 0
-147 140 0
-147 145 0
147 -140 -145 0
-148 140 145 0
-148 -140 -145 0
148 -140 145 0
148 140 -145 0
-149 2 0
-149 8 0
149 -2 -8 0
-150 3 0
-150 8 0
150 -3 -8 0
-151 4 0
-151 8 0
151 -4 -8 0
-152 5 0
-152 8 0
152 -5 -8 0
-153 6 0
-153 8 0
153 -6 -8 0
-154 7 0
-154 8 0
154 -7 -8 0
-155 2 0
-155 9 0
155 -2 -9 0
-156 3 0
-156 9 0
156 -3 -9 0
-157 4 0
-157 9 0
157 -4 -9 0
-158 5 0
-158 9 0
158 -5 -9 0
-159 6 0
-159 9 0
159 -6 -9 0
-160 150 155 0
-160 -150 -155 0
160 -150 155 0
160 150 -155 0
-161 150 0
-161 155 0
161 -150 -155 0
-162 150 155 0
-162 -150 -155 0
162 -150 155 0
162 150 -155 0
-163 151 156 0
-163 -151 -156 0
163 -151 156 0
163 151 -156 0
-164 163 161 0
-164 -163 -161 0
164 -163 161 0
164 163 -161 0
-165 151 0
-165 156 0
165 -151 -156 0
-166 151 156 0
-166 -151 -156 0
166 -151 156 0
166 151 -156 0
-167 161 0
-167 166 0
167 -161 -166 0
-168 -165 0
-168 -167 0
168 165 167 0
-169 152 157 0
-169 -152 -157 0
169 -152 157 0
169 152 -157 0
-170 169 -168 0
-170 -169 168 0
170 -169 -168 0
170 169 168 0
-171 152 0
-171 157 0
171 -152 -157 0
-172 152 157 0
-172 -152 -157 0
172 -152 157 0
172 152 -157 0
-173 -168 0
-173 172 0
173 168 -172 0
-174 -171 0
-174 -173 0
174 171 173 0
-175 153 158 0
-175 -153 -158 0
175 -153 158 0
175 153 -158 0
-176 175 -174 0
-176 -175 174 0
176 -175 -174 0
176 175 174 0
-177 153 0
-177 158 0
177 -153 -158 0
-178 153 158 0
-178 -153 -158 0
178 -153 158 0
178 153 -158 0
-179 -174 0
-179 178 0
179 174 -178 0
-180 -177 0
-180 -179 0
180 177 179 0
-181 154 159 0
-181 -154 -159 0
181 -154 159 0
181 154 -159 0
-182 181 -180 0
-182 -181 180 0
182 -181 -180 0
182 181 180 0
-183 154 0
-183 159 0
183 -154 -159 0
-184 154 159 0
-184 -154 -159 0
184 -154 159 0
184 154 -159 0
-185 -180 0
-185 184 0
185 180 -184 0
-186 -183 0
-186 -185 0
186 183 185 0
-187 2 0
-187 10 0
187 -2 -10 0
-188 3 0
-188 10 0
188 -3 -10 0
-189 4 0
-189 10 0
189 -4 -10 0
-190 5 0
-190 10 0
190 -5 -10 0
-191 164 187 0
-191 -164 -187 0
191 -164 187 0
191 164 -187 0
-192 164 0
-192 187 0
192 -164 -187 0
-193 164 187 0
-193 -164 -187 0
193 -164 187 0
193 164 -187 0
-194 170 188 0
-194 -170 -188 0
194 -170 188 0
194 170 -188 0
-195 194 192 0
-195 -194 -192 0
195 -194 192 0
195 194 -192 0
-196 170 0
-196 188 0
196 -170 -188 0
-197 170 188 0
-197 -170 -188 0
197 -170 188 0
197 170 -188 0
-198 192 0
-198 197 0
198 -192 -197 0
-199 -196 0
-199 -198 0
199 196 198 0
-200 176 189 0
-200 -176 -189 0
200 -176 189 0
200 176 -189 0
-201 200 -199 0
-201 -200 199 0
201 -200 -199 0
201 200 199 0
-202 176 0
-202 189 0
202 -176 -189 0
-203 176 189 0
-203 -176 -189 0
203 -176 189 0
203 176 -189 0
-204 -199 0
-204 203 0
204 199 -203 0
-205 -202 0
-205 -204 0
205 202 204 0
-206 182 190 0
-206 -182 -190 0
206 -182 190 0
206 182 -190 0
-207 206 -205 0
-207 -206 205 0
207 -206 -205 0
207 206 205 0
-208 182 0
-208 190 0
208 -182 -190 0
-209 182 190 0
-209 -182 -190 0
209 -182 190 0
209 182 -190 0
-210 -205 0
-210 209 0
210 205 -209 0
-211 -208 0
-211 -210 0
211 208 210 0
-212 2 0
-212 11 0
212 -2 -11 0
-213 3 0
-213 11 0
213 -3 -11 0
-214 4 0
-214 11 0
214 -4 -11 0
-215 195 212 0
-215 -195 -212 0
215 -195 212 0
215 195 -212 0
-216 195 0
-216 212 0
216 -195 -212 0
-217 195 212 0
-217 -195 -212 0
217 -195 212 0
217 195 -212 0
-218 201 213 0
-218 -201 -213 0
218 -201 213 0
218 201 -213 0
-219 218 216 0
-219 -218 -216 0
219 -218 216 0
219 218 -216 0
-220 201 0
-220 213 0
220 -201 -213 0
-221 201 213 0
-221 -201 -213 0
221 -201 213 0
221 201 -213 0
-222 216 0
-222 221 0
222 -216 -221 0
-223 -220 0
-223 -222 0
223 220 222 0
-224 207 214 0
-224 -207 -214 0
224 -207 214 0
224 207 -214 0
-225 224 -223 0
-225 -224 223 0
225 -224 -223 0
225 224 223 0
-226 207 0
-226 214 0
226 -207 -214 0
-227 207 214 0
-227 -207 -214 0
227 -207 214 0
227 207 -214 0
-228 -223 0
-228 227 0
228 223 -227 0
-229 -226 0
-229 -228 0
229 226 228 0
-230 2 0
-230 12 0
230 -2 -12 0
-231 3 0
-231 12 0
231 -3 -12 0
-232 219 230 0
-232 -219 -230 0
232 -219 230 0
232 219 -230 0
-233 219 0
-233 230 0
233 -219 -230 0
-234 219 230 0
-234 -219 -230 0
234 -219 230 0
234 219 -230 0
-235 225 231 0
-235 -225 -231 0
235 -225 231 0
235 225 -231 0
-236 235 233 0
-236 -235 -233 0
236 -235 233 0
236 235 -233 0
-237 225 0
-237 231 0
237 -225 -231 0
-238 225 231 0
-238 -225 -231 0
238 -225 231 0
238 225 -231 0
-239 233 0
-239 238 0
239 -233 -238 0
-240 -237 0
-240 -239 0
240 237 239 0
-241 2 0
-241 13 0
241 -2 -13 0
-242 236 241 0
-242 -236 -241 0
242 -236 241 0
242 236 -241 0
-243 236 0
-243 241 0
243 -236 -241 0
-244 236 241 0
-244 -236 -241 0
244 -236 241 0
244 236 -241 0
-245 2 0
-245 14 0
245 -2 -14 0
-246 3 0
-246 14 0
246 -3 -14 0
-247 4 0
-247 14 0
247 -4 -14 0
-248 5 0
-248 14 0
248 -5 -14 0
-249 6 0
-249 14 0
249 -6 -14 0
-250 7 0
-250 14 0
250 -7 -14 0
-251 2 0
-251 15 0
251 -2 -15 0
-252 3 0
-252 15 0
252 -3 -15 0
-253 4 0
-253 15 0
253 -4 -15 0
-254 5 0
-254 15 0
254 -5 -15 0
-255 6 0
-255 15 0
255 -6 -15 0
-256 246 251 0
-256 -246 -251 0
256 -246 251 0
256 246 -251 0
-257 246 0
-257 251 0
257 -246 -251 0
-258 246 251 0
-258 -246 -251 0
258 -246 251 0
258 246 -251 0
-259 247 252 0
-259 -247 -252 0
259 -247 252 0
259 247 -252 0
-260 259 257 0
-260 -259 -257 0
260 -259 257 0
260 259 -257 0
-261 247 0
-261 252 0
261 -247 -252 0
-262 247 252 0
-262 -247 -252 0
262 -247 252 0
262 247 -252 0
-263 257 0
-263 262 0
263 -257 -262 0
-264 -261 0
-264 -263 0
264 261 263 0
-265 248 253 0
-265 -248 -253 0
265 -248 253 0
265 248 -253 0
-266 265 -264 0
-266 -265 264 0
266 -265 -264 0
266 265 264 0
-267 248 0
-267 253 0
267 -248 -253 0
-268 248 253 0
-268 -248 -253 0
268 -248 253 0
268 248 -253 0
-269 -264 0
-269 268 0
269 264 -268 0
-270 -267 0
-270 -269 0
270 267 269 0
-271 249 254 0
-271 -249 -254 0
271 -249 254 0
271 249 -254 0
-272 271 -270 0
-272 -271 270 0
272 -271 -270 0
272 271 270 0
-273 249 0
-273 254 0
273 -249 -254 0
-274 249 254 0
-274 -249 -254 0
274 -249 254 0
274 249 -254 0
-275 -270 0
-275 274 0
275 270 -274 0
-276 -273 0
-276 -275 0
276 273 275 0
-277 250 255 0
-277 -250 -255 0
277 -250 255 0
277 250 -255 0
-278 277 -276 0
-278 -277 276 0
278 -277 -276 0
278 277 276 0
-279 250 0
-279 255 0
279 -250 -255 0
-280 250 255 0
-280 -250 -255 0
280 -250 255 0
280 250 -255 0
-281 -276 0
-281 280 0
281 276 -280 0
-282 -279 0
-282 -281 0
282 279 281 0
-283 2 0
-283 16 0
283 -2 -16 0
-284 3 0
-284 16 0
284 -3 -16 0
-285 4 0
-285 16 0
285 -4 -16 0
-286 5 0
-286 16 0
286 -5 -16 0
-287 260 283 0
-287 -260 -283 0
287 -260 283 0
287 260 -283 0
-288 260 0
-288 283 0
288 -260 -283 0
-289 260 283 0
-289 -260 -283 0
289 -260 283 0
289 260 -283 0
-290 266 284 0
-290 -266 -284 0
290 -266 284 0
290 266 -284 0
-291 290 288 0
-291 -290 -288 0
291 -290 288 0
291 290 -288 0
-292 266 0
-292 284 0
292 -266 -284 0
-293 266 284 0
-293 -266 -284 0
293 -266 284 0
293 266 -284 0
-294 288 0
-294 293 0
294 -288 -293 0
-295 -292 0
-295 -294 0
295 292 294 0
-296 272 285 0
-296 -272 -285 0
296 -272 285 0
296 272 -285 0
-297 296 -295 0
-297 -296 295 0
297 -296 -295 0
297 296 295 0
-298 272 0
-298 285 0
298 -272 -285 0
-299 272 285 0
-299 -272 -285 0
299 -272 285 0
299 272 -285 0
-300 -295 0
-300 299 0
300 295 -299 0
-301 -298 0
-301 -300 0
301 298 300 0
-302 278 286 0
-302 -278 -286 0
302 -278 286 0
302 278 -286 0
-303 302 -301 0
-303 -302 301 0
303 -302 -301 0
303 302 301 0
-304 278 0
-304 286 0
304 -278 -286 0
-305 278 286 0
-305 -278 -286 0
305 -278 286 0
305 278 -286 0
-306 -301 0
-306 305 0
306 301 -305 0
-307 -304 0
-307 -306 0
307 304 306 0
-308 2 0
-308 17 0
308 -2 -17 0
-309 3 0
-309 17 0
309 -3 -17 0
-310 4 0
-310 17 0
310 -4 -17 0
-311 291 308 0
-311 -291 -308 0
311 -291 308 0
311 291 -308 0
-312 291 0
-312 308 0
312 -291 -308 0
-313 291 308 0
-313 -291 -308 0
313 -291 308 0
313 291 -308 0
-314 297 309 0
-314 -297 -309 0
314 -297 309 0
314 297 -309 0
-315 314 312 0
-315 -314 -312 0
315 -314 312 0
315 314 -312 0
-316 297 0
-316 309 0
316 -297 -309 0
-317 297 309 0
-317 -297 -309 0
317 -297 309 0
317 297 -309 0
-318 312 0
-318 317 0
318 -312 -317 0
-319 -316 0
-319 -318 0
319 316 318 0
-320 303 310 0
-320 -303 -310 0
320 -303 310 0
320 303 -310 0
-321 320 -319 0
-321 -320 319 0
321 -320 -319 0
321 320 319 0
-322 303 0
-322 310 0
322 -303 -310 0
-323 303 310 0
-323 -303 -310 0
323 -303 310 0
323 303 -310 0
-324 -319 0
-324 323 0
324 319 -323 0
-325 -322 0
-325 -324 0
325 322 324 0
-326 2 0
-326 18 0
326 -2 -18 0
-327 3 0
-327 18 0
327 -3 -18 0
-328 315 326 0
-328 -315 -326 0
328 -315 326 0
328 315 -326 0
-329 315 0
-329 326 0
329 -315 -326 0
-330 315 326 0
-330 -315 -326 0
330 -315 326 0
330 315 -326 0
-331 321 327 0
-331 -321 -327 0
331 -321 327 0
331 321 -327 0
-332 331 329 0
-332 -331 -329 0
332 -331 329 0
332 331 -329 0
-333 321 0
-333 327 0
333 -321 -327 0
-334 321 327 0
-334 -321 -327 0
334 -321 327 0
334 321 -327 0
-335 329 0
-335 334 0
335 -329 -334 0
-336 -333 0
-336 -335 0
336 333 335 0
-337 2 0
-337 19 0
337 -2 -19 0
-338 332 337 0
-338 -332 -337 0
338 -332 337 0
338 332 -337 0
-339 332 0
-339 337 0
339 -332 -337 0
-340 332 337 0
-340 -332 -337 0
340 -332 337 0
340 332 -337 0
-341 149 245 0
-341 -149 -245 0
341 -149 245 0
341 149 -245 0
-342 149 0
-342 245 0
342 -149 -245 0
-343 149 245 0
-343 -149 -245 0
343 -149 245 0
343 149 -245 0
-344 160 256 0
-344 -160 -256 0
344 -160 256 0
344 160 -256 0
-345 344 342 0
-345 -344 -342 0
345 -344 342 0
345 344 -342 0
-346 160 0
-346 256 0
346 -160 -256 0
-347 160 256 0
-347 -160 -256 0
347 -160 256 0
347 160 -256 0
-348 342 0
-348 347 0
348 -342 -347 0
-349 -346 0
-349 -348 0
349 346 348 0
-350 191 287 0
-350 -191 -287 0
350 -191 287 0
350 191 -287 0
-351 350 -349 0
-351 -350 349 0
351 -350 -349 0
351 350 349 0
-352 191 0
-352 287 0
352 -191 -287 0
-353 191 287 0
-353 -191 -287 0
353 -191 287 0
353 191 -287 0
-354 -349 0
-354 353 0
354 349 -353 0
-355 -352 0
-355 -354 0
355 352 354 0
-356 215 311 0
-356 -215 -311 0
356 -215 311 0
356 215 -311 0
-357 356 -355 0
-357 -356 355 0
357 -356 -355 0
357 356 355 0
-358 215 0
-358 311 0
358 -215 -311 0
-359 215 311 0
-359 -215 -311 0
359 -215 311 0
359 215 -311 0
-360 -355 0
-360 359 0
360 355 -359 0
-361 -358 0
-361 -360 0
361 358 360 0
-362 232 328 0
-362 -232 -328 0
362 -232 328 0
362 232 -328 0
-363 362 -361 0
-363 -362 361 0
363 -362 -361 0
363 362 361 0
-364 232 0
-364 328 0
364 -232 -328 0
-365 232 328 0
-365 -232 -328 0
365 -232 328 0
365 232 -328 0
-366 -361 0
-366 365 0
366 361 -365 0
-367 -364 0
-367 -366 0
367 364 366 0
-368 242 338 0
-368 -242 -338 0
368 -242 338 0
368 242 -338 0
-369 368 -367 0
-369 -368 367 0
369 -368 -367 0
369 368 367 0
-370 242 0
-370 338 0
370 -242 -338 0
-371 242 338 0
-371 -242 -338 0
371 -242 338 0
371 242 -338 0
-372 -367 0
-372 371 0
372 367 -371 0
-373 -370 0
-373 -372 0
373 370 372 0
-374 53 341 0
-374 -53 -341 0
374 -53 341 0
374 53 -341 0
-375 64 345 0
-375 -64 -345 0
375 -64 345 0
375 64 -345 0
-376 95 351 0
-376 -95 -351 0
376 -95 351 0
376 95 -351 0
-377 119 357 0
-377 -119 -357 0
377 -119 357 0
377 119 -357 0
-378 136 363 0
-378 -136 -363 0
378 -136 363 0
378 136 -363 0
-379 146 369 0
-379 -146 -369 0
379 -146 369 0
379 146 -369 0
374 375 376 377 378 379 0
