p cnf 515 1699
1 0
-23 9 16 0
-23 -9 -16 0
23 -9 16 0
23 9 -16 0
-24 9 0
-24 16 0
24 -9 -16 0
-25 9 16 0
-25 -9 -16 0
25 -9 16 0
25 9 -16 0
-26 10 17 0
-26 -10 -17 0
26 -10 17 0
26 10 -17 0
-27 26 24 0
-27 -26 -24 0
27 -26 24 0
27 26 -24 0
-28 10 0
-28 17 0
28 -10 -17 0
-29 10 17 0
-29 -10 -17 0
29 -10 17 0
29 10 -17 0
-30 24 0
-30 29 0
30 -24 -29 0
-31 -28 0
-31 -30 0
31 28 30 0
-32 11 18 0
-32 -11 -18 0
32 -11 18 0
32 11 -18 0
-33 32 -31 0
-33 -32 31 0
33 -32 -31 0
33 32 31 0
-34 11 0
-34 18 0
34 -11 -18 0
-35 11 18 0
-35 -11 -18 0
35 -11 18 0
35 11 -18 0
-36 -31 0
-36 35 0
36 31 -35 0
-37 -34 0
-37 -36 0
37 34 36 0
-38 12 19 0
-38 -12 -19 0
38 -12 19 0
38 12 -19 0
-39 38 -37 0
-39 -38 37 0
39 -38 -37 0
39 38 37 0
-40 12 0
-40 19 0
40 -12 -19 0
-41 12 19 0
-41 -12 -19 0
41 -12 19 0
41 12 -19 0
-42 -37 0
-42 41 0
42 37 -41 0
-43 -40 0
-43 -42 0
43 40 42 0
-44 13 20 0
-44 -13 -20 0
44 -13 20 0
44 13 -20 0
-45 44 -43 0
-45 -44 43 0
45 -44 -43 0
45 44 43 0
-46 13 0
-46 20 0
46 -13 -20 0
-47 13 20 0
-47 -13 -20 0
47 -13 20 0
47 13 -20 0
-48 -43 0
-48 47 0
48 43 -47 0
-49 -46 0
-49 -48 0
49 46 48 0
-50 14 21 0
-50 -14 -21 0
50 -14 21 0
50 14 -21 0
-51 50 -49 0
-51 -50 49 0
51 -50 -49 0
51 50 49 0
-52 14 0
-52 21 0
52 -14 -21 0
-53 14 21 0
-53 -14 -21 0
53 -14 21 0
53 14 -21 0
-54 -49 0
-54 53 0
54 49 -53 0
-55 -52 0
-55 -54 0
55 52 54 0
-56 15 22 0
-56 -15 -22 0
56 -15 22 0
56 15 -22 0
-57 56 -55 0
-57 -56 55 0
57 -56 -55 0
57 56 55 0
-58 15 0
-58 22 0
58 -15 -22 0
-59 15 22 0
-59 -15 -22 0
59 -15 22 0
59 15 -22 0
-60 -55 0
-60 59 0
60 55 -59 0
-61 -58 0
-61 -60 0
61 58 60 0
-62 2 0
-62 23 0
62 -2 -23 0
-63 3 0
-63 23 0
63 -3 -23 0
-64 4 0
-64 23 0
64 -4 -23 0
-65 5 0
-65 23 0
65 -5 -23 0
-66 6 0
-66 23 0
66 -6 -23 0
-67 7 0
-67 23 0
67 -7 -23 0
-68 8 0
-68 23 0
68 -8 -23 0
-69 2 0
-69 27 0
69 -2 -27 0
-70 3 0
-70 27 0
70 -3 -27 0
-71 4 0
-71 27 0
71 -4 -27 0
-72 5 0
-72 27 0
72 -5 -27 0
-73 6 0
-73 27 0
73 -6 -27 0
-74 7 0
-74 27 0
74 -7 -27 0
-75 63 69 0
-75 -63 -69 0
75 -63 69 0
75 63 -69 0
-76 63 0
-76 69 0
76 -63 -69 0
-77 63 69 0
-77 -63 -69 0
77 -63 69 0
77 63 -69 0
-78 64 70 0
-78 -64 -70 0
78 -64 70 0
78 64 -70 0
-79 78 76 0
-79 -78 -76 0
79 -78 76 0
79 78 -76 0
-80 64 0
-80 70 0
80 -64 -70 0
-81 64 70 0
-81 -64 -70 0
81 -64 70 0
81 64 -70 0
-82 76 0
-82 81 0
82 -76 -81 0
-83 -80 0
-83 -82 0
83 80 82 0
-84 65 71 0
-84 -65 -71 0
84 -65 71 0
84 65 -71 0
-85 84 -83 0
-85 -84 83 0
85 -84 -83 0
85 84 83 0
-86 65 0
-86 71 0
86 -65 -71 0
-87 65 71 0
-87 -65 -71 0
87 -65 71 0
87 65 -71 0
-88 -83 0
-88 87 0
88 83 -87 0
-89 -86 0
-89 -88 0
89 86 88 0
-90 66 72 0
-90 -66 -72 0
90 -66 72 0
90 66 -72 0
-91 90 -89 0
-91 -90 89 0
91 -90 -89 0
91 90 89 0
-92 66 0
-92 72 0
92 -66 -72 0
-93 66 72 0
-93 -66 -72 0
93 -66 72 0
93 66 -72 0
-94 -89 0
-94 93 0
94 89 -93 0
-95 -92 0
-95 -94 0
95 92 94 0
-96 67 73 0
-96 -67 -73 0
96 -67 73 0
96 67 -73 0
-97 96 -95 0
-97 -96 95 0
97 -96 -95 0
97 96 95 0
-98 67 0
-98 73 0
98 -67 -73 0
-99 67 73 0
-99 -67 -73 0
99 -67 73 0
99 67 -73 0
-100 -95 0
-100 99 0
100 95 -99 0
-101 -98 0
-101 -100 0
101 98 100 0
-102 68 74 0
-102 -68 -74 0
102 -68 74 0
102 68 -74 0
-103 102 -101 0
-103 -102 101 0
103 -102 -101 0
103 102 101 0
-104 68 0
-104 74 0
104 -68 -74 0
-105 68 74 0
-105 -68 -74 0
105 -68 74 0
105 68 -74 0
-106 -101 0
-106 105 0
106 101 -105 0
-107 -104 0
-107 -106 0
107 104 106 0
-108 2 0
-108 33 0
108 -2 -33 0
-109 3 0
-109 33 0
109 -3 -33 0
-110 4 0
-110 33 0
110 -4 -33 0
-111 5 0
-111 33 0
111 -5 -33 0
-112 6 0
-112 33 0
112 -6 -33 0
-113 79 108 0
-113 -79 -108 0
113 -79 108 0
113 79 -108 0
-114 79 0
-114 108 0
114 -79 -108 0
-115 79 108 0
-115 -79 -108 0
115 -79 108 0
115 79 -108 0
-116 85 109 0
-116 -85 -109 0
116 -85 109 0
116 85 -109 0
-117 116 114 0
-117 -116 -114 0
117 -116 114 0
117 116 -114 0
-118 85 0
-118 109 0
118 -85 -109 0
-119 85 109 0
-119 -85 -109 0
119 -85 109 0
119 85 -109 0
-120 114 0
-120 119 0
120 -114 -119 0
-121 -118 0
-121 -120 0
121 118 120 0
-122 91 110 0
-122 -91 -110 0
122 -91 110 0
122 91 -110 0
-123 122 -121 0
-123 -122 121 0
123 -122 -121 0
123 122 121 0
-124 91 0
-124 110 0
124 -91 -110 0
-125 91 110 0
-125 -91 -110 0
125 -91 110 0
125 91 -110 0
-126 -121 0
-126 125 0
126 121 -125 0
-127 -124 0
-127 -126 0
127 124 126 0
-128 97 111 0
-128 -97 -111 0
128 -97 111 0
128 97 -111 0
-129 128 -127 0
-129 -128 127 0
129 -128 -127 0
129 128 127 0
-130 97 0
-130 111 0
130 -97 -111 0
-131 97 111 0
-131 -97 -111 0
131 -97 111 0
131 97 -111 0
-132 -127 0
-132 131 0
132 127 -131 0
-133 -130 0
-133 -132 0
133 130 132 0
-134 103 112 0
-134 -103 -112 0
134 -103 112 0
134 103 -112 0
-135 134 -133 0
-135 -134 133 0
135 -134 -133 0
135 134 133 0
-136 103 0
-136 112 0
136 -103 -112 0
-137 103 112 0
-137 -103 -112 0
137 -103 112 0
137 103 -112 0
-138 -133 0
-138 137 0
138 133 -137 0
-139 -136 0
-139 -138 0
139 136 138 0
-140 2 0
-140 39 0
140 -2 -39 0
-141 3 0
-141 39 0
141 -3 -39 0
-142 4 0
-142 39 0
142 -4 -39 0
-143 5 0
-143 39 0
143 -5 -39 0
-144 117 140 0
-144 -117 -140 0
144 -117 140 0
144 117 -140 0
-145 117 0
-145 140 0
145 -117 -140 0
-146 117 140 0
-146 -117 -140 0
146 -117 140 0
146 117 -140 0
-147 123 141 0
-147 -123 -141 0
147 -123 141 0
147 123 -141 0
-148 147 145 0
-148 -147 -145 0
148 -147 145 0
148 147 -145 0
-149 123 0
-149 141 0
149 -123 -141 0
-150 123 141 0
-150 -123 -141 0
150 -123 141 0
150 123 -141 0
-151 145 0
-151 150 0
151 -145 -150 0
-152 -149 0
-152 -151 0
152 149 151 0
-153 129 142 0
-153 -129 -142 0
153 -129 142 0
153 129 -142 0
-154 153 -152 0
-154 -153 152 0
154 -153 -152 0
154 153 152 0
-155 129 0
-155 142 0
155 -129 -142 0
-156 129 142 0
-156 -129 -142 0
156 -129 142 0
156 129 -142 0
-157 -152 0
-157 156 0
157 152 -156 0
-158 -155 0
-158 -157 0
158 155 157 0
-159 135 143 0
-159 -135 -143 0
159 -135 143 0
159 135 -143 0
-160 159 -158 0
-160 -159 158 0
160 -159 -158 0
160 159 158 0
-161 135 0
-161 143 0
161 -135 -143 0
-162 135 143 0
-162 -135 -143 0
162 -135 143 0
162 135 -143 0
-163 -158 0
-163 162 0
163 158 -162 0
-164 -161 0
-164 -163 0
164 161 163 0
-165 2 0
-165 45 0
165 -2 -45 0
-166 3 0
-166 45 0
166 -3 -45 0
-167 4 0
-167 45 0
167 -4 -45 0
-168 148 165 0
-168 -148 -165 0
168 -148 165 0
168 148 -165 0
-169 148 0
-169 165 0
169 -148 -165 0
-170 148 165 0
-170 -148 -165 0
170 -148 165 0
170 148 -165 0
-171 154 166 0
-171 -154 -166 0
171 -154 166 0
171 154 -166 0
-172 171 169 0
-172 -171 -169 0
172 -171 169 0
172 171 -169 0
-173 154 0
-173 166 0
173 -154 -166 0
-174 154 166 0
-174 -154 -166 0
174 -154 166 0
174 154 -166 0
-175 169 0
-175 174 0
175 -169 -174 0
-176 -173 0
-176 -175 0
176 173 175 0
-177 160 167 0
-177 -160 -167 0
177 -160 167 0
177 160 -167 0
-178 177 -176 0
-178 -177 176 0
178 -177 -176 0
178 177 176 0
-179 160 0
-179 167 0
179 -160 -167 0
-180 160 167 0
-180 -160 -167 0
180 -160 167 0
180 160 -167 0
-181 -176 0
-181 180 0
181 176 -180 0
-182 -179 0
-182 -181 0
182 179 181 0
-183 2 0
-183 51 0
183 -2 -51 0
-184 3 0
-184 51 0
184 -3 -51 0
-185 172 183 0
-185 -172 -183 0
185 -172 183 0
185 172 -183 0
-186 172 0
-186 183 0
186 -172 -183 0
-187 172 183 0
-187 -172 -183 0
187 -172 183 0
187 172 -183 0
-188 178 184 0
-188 -178 -184 0
188 -178 184 0
188 178 -184 0
-189 188 186 0
-189 -188 -186 0
189 -188 186 0
189 188 -186 0
-190 178 0
-190 184 0
190 -178 -184 0
-191 178 184 0
-191 -178 -184 0
191 -178 184 0
191 178 -184 0
-192 186 0
-192 191 0
192 -186 -191 0
-193 -190 0
-193 -192 0
193 190 192 0
-194 2 0
-194 57 0
194 -2 -57 0
-195 189 194 0
-195 -189 -194 0
195 -189 194 0
195 189 -194 0
-196 189 0
-196 194 0
196 -189 -194 0
-197 189 194 0
-197 -189 -194 0
197 -189 194 0
197 189 -194 0
-198 2 0
-198 9 0
198 -2 -9 0
-199 3 0
-199 9 0
199 -3 -9 0
-200 4 0
-200 9 0
200 -4 -9 0
-201 5 0
-201 9 0
201 -5 -9 0
-202 6 0
-202 9 0
202 -6 -9 0
-203 7 0
-203 9 0
203 -7 -9 0
-204 8 0
-204 9 0
204 -8 -9 0
-205 2 0
-205 10 0
205 -2 -10 0
-206 3 0
-206 10 0
206 -3 -10 0
-207 4 0
-207 10 0
207 -4 -10 0
-208 5 0
-208 10 0
208 -5 -10 0
-209 6 0
-209 10 0
209 -6 -10 0
-210 7 0
-210 10 0
210 -7 -10 0
-211 199 205 0
-211 -199 -205 0
211 -199 205 0
211 199 -205 0
-212 199 0
-212 205 0
212 -199 -205 0
-213 199 205 0
-213 -199 -205 0
213 -199 205 0
213 199 -205 0
-214 200 206 0
-214 -200 -206 0
214 -200 206 0
214 200 -206 0
-215 214 212 0
-215 -214 -212 0
215 -214 212 0
215 214 -212 0
-216 200 0
-216 206 0
216 -200 -206 0
-217 200 206 0
-217 -200 -206 0
217 -200 206 0
217 200 -206 0
-218 212 0
-218 217 0
218 -212 -217 0
-219 -216 0
-219 -218 0
219 216 218 0
-220 201 207 0
-220 -201 -207 0
220 -201 207 0
220 201 -207 0
-221 220 -219 0
-221 -220 219 0
221 -220 -219 0
221 220 219 0
-222 201 0
-222 207 0
222 -201 -207 0
-223 201 207 0
-223 -201 -207 0
223 -201 207 0
223 201 -207 0
-224 -219 0
-224 223 0
224 219 -223 0
-225 -222 0
-225 -224 0
225 222 224 0
-226 202 208 0
-226 -202 -208 0
226 -202 208 0
226 202 -208 0
-227 226 -225 0
-227 -226 225 0
227 -226 -225 0
227 226 225 0
-228 202 0
-228 208 0
228 -202 -208 0
-229 202 208 0
-229 -202 -208 0
229 -202 208 0
229 202 -208 0
-230 -225 0
-230 229 0
230 225 -229 0
-231 -228 0
-231 -230 0
231 228 230 0
-232 203 209 0
-232 -203 -209 0
232 -203 209 0
232 203 -209 0
-233 232 -231 0
-233 -232 231 0
233 -232 -231 0
233 232 231 0
-234 203 0
-234 209 0
234 -203 -209 0
-235 203 209 0
-235 -203 -209 0
235 -203 209 0
235 203 -209 0
-236 -231 0
-236 235 0
236 231 -235 0
-237 -234 0
-237 -236 0
237 234 236 0
-238 204 210 0
-238 -204 -210 0
238 -204 210 0
238 204 -210 0
-239 238 -237 0
-239 -238 237 0
239 -238 -237 0
239 238 237 0
-240 204 0
-240 210 0
240 -204 -210 0
-241 204 210 0
-241 -204 -210 0
241 -204 210 0
241 204 -210 0
-242 -237 0
-242 241 0
242 237 -241 0
-243 -240 0
-243 -242 0
243 240 242 0
-244 2 0
-244 11 0
244 -2 -11 0
-245 3 0
-245 11 0
245 -3 -11 0
-246 4 0
-246 11 0
246 -4 -11 0
-247 5 0
-247 11 0
247 -5 -11 0
-248 6 0
-248 11 0
248 -6 -11 0
-249 215 244 0
-249 -215 -244 0
249 -215 244 0
249 215 -244 0
-250 215 0
-250 244 0
250 -215 -244 0
-251 215 244 0
-251 -215 -244 0
251 -215 244 0
251 215 -244 0
-252 221 245 0
-252 -221 -245 0
252 -221 245 0
252 221 -245 0
-253 252 250 0
-253 -252 -250 0
253 -252 250 0
253 252 -250 0
-254 221 0
-254 245 0
254 -221 -245 0
-255 221 245 0
-255 -221 -245 0
255 -221 245 0
255 221 -245 0
-256 250 0
-256 255 0
256 -250 -255 0
-257 -254 0
-257 -256 0
257 254 256 0
-258 227 246 0
-258 -227 -246 0
258 -227 246 0
258 227 -246 0
-259 258 -257 0
-259 -258 257 0
259 -258 -257 0
259 258 257 0
-260 227 0
-260 246 0
260 -227 -246 0
-261 227 246 0
-261 -227 -246 0
261 -227 246 0
261 227 -246 0
-262 -257 0
-262 261 0
262 257 -261 0
-263 -260 0
-263 -262 0
263 260 262 0
-264 233 247 0
-264 -233 -247 0
264 -233 247 0
264 233 -247 0
-265 264 -263 0
-265 -264 263 0
265 -264 -263 0
265 264 263 0
-266 233 0
-266 247 0
266 -233 -247 0
-267 233 247 0
-267 -233 -247 0
267 -233 247 0
267 233 -247 0
-268 -263 0
-268 267 0
268 263 -267 0
-269 -266 0
-269 -268 0
269 266 268 0
-270 239 248 0
-270 -239 -248 0
270 -239 248 0
270 239 -248 0
-271 270 -269 0
-271 -270 269 0
271 -270 -269 0
271 270 269 0
-272 239 0
-272 248 0
272 -239 -248 0
-273 239 248 0
-273 -239 -248 0
273 -239 248 0
273 239 -248 0
-274 -269 0
-274 273 0
274 269 -273 0
-275 -272 0
-275 -274 0
275 272 274 0
-276 2 0
-276 12 0
276 -2 -12 0
-277 3 0
-277 12 0
277 -3 -12 0
-278 4 0
-278 12 0
278 -4 -12 0
-279 5 0
-279 12 0
279 -5 -12 0
-280 253 276 0
-280 -253 -276 0
280 -253 276 0
280 253 -276 0
-281 253 0
-281 276 0
281 -253 -276 0
-282 253 276 0
-282 -253 -276 0
282 -253 276 0
282 253 -276 0
-283 259 277 0
-283 -259 -277 0
283 -259 277 0
283 259 -277 0
-284 283 281 0
-284 -283 -281 0
284 -283 281 0
284 283 -281 0
-285 259 0
-285 277 0
285 -259 -277 0
-286 259 277 0
-286 -259 -277 0
286 -259 277 0
286 259 -277 0
-287 281 0
-287 286 0
287 -281 -286 0
-288 -285 0
-288 -287 0
288 285 287 0
-289 265 278 0
-289 -265 -278 0
289 -265 278 0
289 265 -278 0
-290 289 -288 0
-290 -289 288 0
290 -289 -288 0
290 289 288 0
-291 265 0
-291 278 0
291 -265 -278 0
-292 265 278 0
-292 -265 -278 0
292 -265 278 0
292 265 -278 0
-293 -288 0
-293 292 0
293 288 -292 0
-294 -291 0
-294 -293 0
294 291 293 0
-295 271 279 0
-295 -271 -279 0
295 -271 279 0
295 271 -279 0
-296 295 -294 0
-296 -295 294 0
296 -295 -294 0
296 295 294 0
-297 271 0
-297 279 0
297 -271 -279 0
-298 271 279 0
-298 -271 -279 0
298 -271 279 0
298 271 -279 0
-299 -294 0
-299 298 0
299 294 -298 0
-300 -297 0
-300 -299 0
300 297 299 0
-301 2 0
-301 13 0
301 -2 -13 0
-302 3 0
-302 13 0
302 -3 -13 0
-303 4 0
-303 13 0
303 -4 -13 0
-304 284 301 0
-304 -284 -301 0
304 -284 301 0
304 284 -301 0
-305 284 0
-305 301 0
305 -284 -301 0
-306 284 301 0
-306 -284 -301 0
306 -284 301 0
306 284 -301 0
-307 290 302 0
-307 -290 -302 0
307 -290 302 0
307 290 -302 0
-308 307 305 0
-308 -307 -305 0
308 -307 305 0
308 307 -305 0
-309 290 0
-309 302 0
309 -290 -302 0
-310 290 302 0
-310 -290 -302 0
310 -290 302 0
310 290 -302 0
-311 305 0
-311 310 0
311 -305 -310 0
-312 -309 0
-312 -311 0
312 309 311 0
-313 296 303 0
-313 -296 -303 0
313 -296 303 0
313 296 -303 0
-314 313 -312 0
-314 -313 312 0
314 -313 -312 0
314 313 312 0
-315 296 0
-315 303 0
315 -296 -303 0
-316 296 303 0
-316 -296 -303 0
316 -296 303 0
316 296 -303 0
-317 -312 0
-317 316 0
317 312 -316 0
-318 -315 0
-318 -317 0
318 315 317 0
-319 2 0
-319 14 0
319 -2 -14 0
-320 3 0
-320 14 0
320 -3 -14 0
-321 308 319 0
-321 -308 -319 0
321 -308 319 0
321 308 -319 0
-322 308 0
-322 319 0
322 -308 -319 0
-323 308 319 0
-323 -308 -319 0
323 -308 319 0
323 308 -319 0
-324 314 320 0
-324 -314 -320 0
324 -314 320 0
324 314 -320 0
-325 324 322 0
-325 -324 -322 0
325 -324 322 0
325 324 -322 0
-326 314 0
-326 320 0
326 -314 -320 0
-327 314 320 0
-327 -314 -320 0
327 -314 320 0
327 314 -320 0
-328 322 0
-328 327 0
328 -322 -327 0
-329 -326 0
-329 -328 0
329 326 328 0
-330 2 0
-330 15 0
330 -2 -15 0
-331 325 330 0
-331 -325 -330 0
331 -325 330 0
331 325 -330 0
-332 325 0
-332 330 0
332 -325 -330 0
-333 325 330 0
-333 -325 -330 0
333 -325 330 0
333 325 -330 0
-334 2 0
-334 16 0
334 -2 -16 0
-335 3 0
-335 16 0
335 -3 -16 0
-336 4 0
-336 16 0
336 -4 -16 0
-337 5 0
-337 16 0
337 -5 -16 0
-338 6 0
-338 16 0
338 -6 -16 0
-339 7 0
-339 16 0
339 -7 -16 0
-340 8 0
-340 16 0
340 -8 -16 0
-341 2 0
-341 17 0
341 -2 -17 0
-342 3 0
-342 17 0
342 -3 -17 0
-343 4 0
-343 17 0
343 -4 -17 0
-344 5 0
-344 17 0
344 -5 -17 0
-345 6 0
-345 17 0
345 -6 -17 0
-346 7 0
-346 17 0
346 -7 -17 0
-347 335 341 0
-347 -335 -341 0
347 -335 341 0
347 335 -341 0
-348 335 0
-348 341 0
348 -335 -341 0
-349 335 341 0
-349 -335 -341 0
349 -335 341 0
349 335 -341 0
-350 336 342 0
-350 -336 -342 0
350 -336 342 0
350 336 -342 0
-351 350 348 0
-351 -350 -348 0
351 -350 348 0
351 350 -348 0
-352 336 0
-352 342 0
352 -336 -342 0
-353 336 342 0
-353 -336 -342 0
353 -336 342 0
353 336 -342 0
-354 348 0
-354 353 0
354 -348 -353 0
-355 -352 0
-355 -354 0
355 352 354 0
-356 337 343 0
-356 -337 -343 0
356 -337 343 0
356 337 -343 0
-357 356 -355 0
-357 -356 355 0
357 -356 -355 0
357 356 355 0
-358 337 0
-358 343 0
358 -337 -343 0
-359 337 343 0
-359 -337 -343 0
359 -337 343 0
359 337 -343 0
-360 -355 0
-360 359 0
360 355 -359 0
-361 -358 0
-361 -360 0
361 358 360 0
-362 338 344 0
-362 -338 -344 0
362 -338 344 0
362 338 -344 0
-363 362 -361 0
-363 -362 361 0
363 -362 -361 0
363 362 361 0
-364 338 0
-364 344 0
364 -338 -344 0
-365 338 344 0
-365 -338 -344 0
365 -338 344 0
365 338 -344 0
-366 -361 0
-366 365 0
366 361 -365 0
-367 -364 0
-367 -366 0
367 364 366 0
-368 339 345 0
-368 -339 -345 0
368 -339 345 0
368 339 -345 0
-369 368 -367 0
-369 -368 367 0
369 -368 -367 0
369 368 367 0
-370 339 0
-370 345 0
370 -339 -345 0
-371 339 345 0
-371 -339 -345 0
371 -339 345 0
371 339 -345 0
-372 -367 0
-372 371 0
372 367 -371 0
-373 -370 0
-373 -372 0
373 370 372 0
-374 340 346 0
-374 -340 -346 0
374 -340 346 0
374 340 -346 0
-375 374 -373 0
-375 -374 373 0
375 -374 -373 0
375 374 373 0
-376 340 0
-376 346 0
376 -340 -346 0
-377 340 346 0
-377 -340 -346 0
377 -340 346 0
377 340 -346 0
-378 -373 0
-378 377 0
378 373 -377 0
-379 -376 0
-379 -378 0
379 376 378 0
-380 2 0
-380 18 0
380 -2 -18 0
-381 3 0
-381 18 0
381 -3 -18 0
-382 4 0
-382 18 0
382 -4 -18 0
-383 5 0
-383 18 0
383 -5 -18 0
-384 6 0
-384 18 0
384 -6 -18 0
-385 351 380 0
-385 -351 -380 0
385 -351 380 0
385 351 -380 0
-386 351 0
-386 380 0
386 -351 -380 0
-387 351 380 0
-387 -351 -380 0
387 -351 380 0
387 351 -380 0
-388 357 381 0
-388 -357 -381 0
388 -357 381 0
388 357 -381 0
-389 388 386 0
-389 -388 -386 0
389 -388 386 0
389 388 -386 0
-390 357 0
-390 381 0
390 -357 -381 0
-391 357 381 0
-391 -357 -381 0
391 -357 381 0
391 357 -381 0
-392 386 0
-392 391 0
392 -386 -391 0
-393 -390 0
-393 -392 0
393 390 392 0
-394 363 382 0
-394 -363 -382 0
394 -363 382 0
394 363 -382 0
-395 394 -393 0
-395 -394 393 0
395 -394 -393 0
395 394 393 0
-396 363 0
-396 382 0
396 -363 -382 0
-397 363 382 0
-397 -363 -382 0
397 -363 382 0
397 363 -382 0
-398 -393 0
-398 397 0
398 393 -397 0
-399 -396 0
-399 -398 0
399 396 398 0
-400 369 383 0
-400 -369 -383 0
400 -369 383 0
400 369 -383 0
-401 400 -399 0
-401 -400 399 0
401 -400 -399 0
401 400 399 0
-402 369 0
-402 383 0
402 -369 -383 0
-403 369 383 0
-403 -369 -383 0
403 -369 383 0
403 369 -383 0
-404 -399 0
-404 403 0
404 399 -403 0
-405 -402 0
-405 -404 0
405 402 404 0
-406 375 384 0
-406 -375 -384 0
406 -375 384 0
406 375 -384 0
-407 406 -405 0
-407 -406 405 0
407 -406 -405 0
407 406 405 0
-408 375 0
-408 384 0
408 -375 -384 0
-409 375 384 0
-409 -375 -384 0
409 -375 384 0
409 375 -384 0
-410 -405 0
-410 409 0
410 405 -409 0
-411 -408 0
-411 -410 0
411 408 410 0
-412 2 0
-412 19 0
412 -2 -19 0
-413 3 0
-413 19 0
413 -3 -19 0
-414 4 0
-414 19 0
414 -4 -19 0
-415 5 0
-415 19 0
415 -5 -19 0
-416 389 412 0
-416 -389 -412 0
416 -389 412 0
416 389 -412 0
-417 389 0
-417 412 0
417 -389 -412 0
-418 389 412 0
-418 -389 -412 0
418 -389 412 0
418 389 -412 0
-419 395 413 0
-419 -395 -413 0
419 -395 413 0
419 395 -413 0
-420 419 417 0
-420 -419 -417 0
420 -419 417 0
420 419 -417 0
-421 395 0
-421 413 0
421 -395 -413 0
-422 395 413 0
-422 -395 -413 0
422 -395 413 0
422 395 -413 0
-423 417 0
-423 422 0
423 -417 -422 0
-424 -421 0
-424 -423 0
424 421 423 0
-425 401 414 0
-425 -401 -414 0
425 -401 414 0
425 401 -414 0
-426 425 -424 0
-426 -425 424 0
426 -425 -424 0
426 425 424 0
-427 401 0
-427 414 0
427 -401 -414 0
-428 401 414 0
-428 -401 -414 0
428 -401 414 0
428 401 -414 0
-429 -424 0
-429 428 0
429 424 -428 0
-430 -427 0
-430 -429 0
430 427 429 0
-431 407 415 0
-431 -407 -415 0
431 -407 415 0
431 407 -415 0
-432 431 -430 0
-432 -431 430 0
432 -431 -430 0
432 431 430 0
-433 407 0
-433 415 0
433 -407 -415 0
-434 407 415 0
-434 -407 -415 0
434 -407 415 0
434 407 -415 0
-435 -430 0
-435 434 0
435 430 -434 0
-436 -433 0
-436 -435 0
436 433 435 0
-437 2 0
-437 20 0
437 -2 -20 0
-438 3 0
-438 20 0
438 -3 -20 0
-439 4 0
-439 20 0
439 -4 -20 0
-440 420 437 0
-440 -420 -437 0
440 -420 437 0
440 420 -437 0
-441 420 0
-441 437 0
441 -420 -437 0
-442 420 437 0
-442 -420 -437 0
442 -420 437 0
442 420 -437 0
-443 426 438 0
-443 -426 -438 0
443 -426 438 0
443 426 -438 0
-444 443 441 0
-444 -443 -441 0
444 -443 441 0
444 443 -441 0
-445 426 0
-445 438 0
445 -426 -438 0
-446 426 438 0
-446 -426 -438 0
446 -426 438 0
446 426 -438 0
-447 441 0
-447 446 0
447 -441 -446 0
-448 -445 0
-448 -447 0
448 445 447 0
-449 432 439 0
-449 -432 -439 0
449 -432 439 0
449 432 -439 0
-450 449 -448 0
-450 -449 448 0
450 -449 -448 0
450 449 448 0
-451 432 0
-451 439 0
451 -432 -439 0
-452 432 439 0
-452 -432 -439 0
452 -432 439 0
452 432 -439 0
-453 -448 0
-453 452 0
453 448 -452 0
-454 -451 0
-454 -453 0
454 451 453 0
-455 2 0
-455 21 0
455 -2 -21 0
-456 3 0
-456 21 0
456 -3 -21 0
-457 444 455 0
-457 -444 -455 0
457 -444 455 0
457 444 -455 0
-458 444 0
-458 455 0
458 -444 -455 0
-459 444 455 0
-459 -444 -455 0
459 -444 455 0
459 444 -455 0
-460 450 456 0
-460 -450 -456 0
460 -450 456 0
460 450 -456 0
-461 460 458 0
-461 -460 -458 0
461 -460 458 0
461 460 -458 0
-462 450 0
-462 456 0
462 -450 -456 0
-463 450 456 0
-463 -450 -456 0
463 -450 456 0
463 450 -456 0
-464 458 0
-464 463 0
464 -458 -463 0
-465 -462 0
-465 -464 0
465 462 464 0
-466 2 0
-466 22 0
466 -2 -22 0
-467 461 466 0
-467 -461 -466 0
467 -461 466 0
467 461 -466 0
-468 461 0
-468 466 0
468 -461 -466 0
-469 461 466 0
-469 -461 -466 0
469 -461 466 0
469 461 -466 0
-470 198 334 0
-470 -198 -334 0
470 -198 334 0
470 198 -334 0
-471 198 0
-471 334 0
471 -198 -334 0
-472 198 334 0
-472 -198 -334 0
472 -198 334 0
472 198 -334 0
-473 211 347 0
-473 -211 -347 0
473 -211 347 0
473 211 -347 0
-474 473 471 0
-474 -473 -471 0
474 -473 471 0
474 473 -471 0
-475 211 0
-475 347 0
475 -211 -347 0
-476 211 347 0
-476 -211 -347 0
476 -211 347 0
476 211 -347 0
-477 471 0
-477 476 0
477 -471 -476 0
-478 -475 0
-478 -477 0
478 475 477 0
-479 249 385 0
-479 -249 -385 0
479 -249 385 0
479 249 -385 0
-480 479 -478 0
-480 -479 478 0
480 -479 -478 0
480 479 478 0
-481 249 0
-481 385 0
481 -249 -385 0
-482 249 385 0
-482 -249 -385 0
482 -249 385 0
482 249 -385 0
-483 -478 0
-483 482 0
483 478 -482 0
-484 -481 0
-484 -483 0
484 481 483 0
-485 280 416 0
-485 -280 -416 0
485 -280 416 0
485 280 -416 0
-486 485 -484 0
-486 -485 484 0
486 -485 -484 0
486 485 484 0
-487 280 0
-487 416 0
487 -280 -416 0
-488 280 416 0
-488 -280 -416 0
488 -280 416 0
488 280 -416 0
-489 -484 0
-489 488 0
489 484 -488 0
-490 -487 0
-490 -489 0
490 487 489 0
-491 304 440 0
-491 -304 -440 0
491 -304 440 0
491 304 -440 0
-492 491 -490 0
-492 -491 490 0
492 -491 -490 0
492 491 490 0
-493 304 0
-493 440 0
493 -304 -440 0
-494 304 440 0
-494 -304 -440 0
494 -304 440 0
494 304 -440 0
-495 -490 0
-495 494 0
495 490 -494 0
-496 -493 0
-496 -495 0
496 493 495 0
-497 321 457 0
-497 -321 -457 0
497 -321 457 0
497 321 -457 0
-498 497 -496 0
-498 -497 496 0
498 -497 -496 0
498 497 496 0
-499 321 0
-499 457 0
499 -321 -457 0
-500 321 457 0
-500 -321 -457 0
500 -321 457 0
500 321 -457 0
-501 -496 0
-501 500 0
501 496 -500 0
-502 -499 0
-502 -501 0
502 499 501 0
-503 331 467 0
-503 -331 -467 0
503 -331 467 0
503 331 -467 0
-504 503 -502 0
-504 -503 502 0
504 -503 -502 0
504 503 502 0
-505 331 0
-505 467 0
505 -331 -467 0
-506 331 467 0
-506 -331 -467 0
506 -331 467 0
506 331 -467 0
-507 -502 0
-507 506 0
507 502 -506 0
-508 -505 0
-508 -507 0
508 505 507 0
-509 62 470 0
-509 -62 -470 0
509 -62 470 0
509 62 -470 0
-510 75 474 0
-510 -75 -474 0
510 -75 474 0
510 75 -474 0
-511 113 480 0
-511 -113 -480 0
511 -113 480 0
511 113 -480 0
-512 144 486 0
-512 -144 -486 0
512 -144 486 0
512 144 -486 0
-513 168 492 0
-513 -168 -492 0
513 -168 492 0
513 168 -492 0
-514 185 498 0
-514 -185 -498 0
514 -185 498 0
514 185 -498 0
-515 195 504 0
-515 -195 -504 0
515 -195 504 0
515 195 -504 0
509 510 511 512 513 514 515 0
