p cnf 1334 4473
1 0
-42 2 0
-42 22 0
42 -2 -22 0
-43 3 0
-43 22 0
43 -3 -22 0
-44 4 0
-44 22 0
44 -4 -22 0
-45 5 0
-45 22 0
45 -5 -22 0
-46 6 0
-46 22 0
46 -6 -22 0
-47 7 0
-47 22 0
47 -7 -22 0
-48 8 0
-48 22 0
48 -8 -22 0
-49 9 0
-49 22 0
49 -9 -22 0
-50 10 0
-50 22 0
50 -10 -22 0
-51 11 0
-51 22 0
51 -11 -22 0
-52 12 0
-52 22 0
52 -12 -22 0
-53 13 0
-53 22 0
53 -13 -22 0
-54 14 0
-54 22 0
54 -14 -22 0
-55 15 0
-55 22 0
55 -15 -22 0
-56 16 0
-56 22 0
56 -16 -22 0
-57 17 0
-57 22 0
57 -17 -22 0
-58 18 0
-58 22 0
58 -18 -22 0
-59 19 0
-59 22 0
59 -19 -22 0
-60 20 0
-60 22 0
60 -20 -22 0
-61 21 0
-61 22 0
61 -21 -22 0
-62 2 0
-62 23 0
62 -2 -23 0
-63 3 0
-63 23 0
63 -3 -23 0
-64 4 0
-64 23 0
64 -4 -23 0
-65 5 0
-65 23 0
65 -5 -23 0
-66 6 0
-66 23 0
66 -6 -23 0
-67 7 0
-67 23 0
67 -7 -23 0
-68 8 0
-68 23 0
68 -8 -23 0
-69 9 0
-69 23 0
69 -9 -23 0
-70 10 0
-70 23 0
70 -10 -23 0
-71 11 0
-71 23 0
71 -11 -23 0
-72 12 0
-72 23 0
72 -12 -23 0
-73 13 0
-73 23 0
73 -13 -23 0
-74 14 0
-74 23 0
74 -14 -23 0
-75 15 0
-75 23 0
75 -15 -23 0
-76 16 0
-76 23 0
76 -16 -23 0
-77 17 0
-77 23 0
77 -17 -23 0
-78 18 0
-78 23 0
78 -18 -23 0
-79 19 0
-79 23 0
79 -19 -23 0
-80 20 0
-80 23 0
80 -20 -23 0
-81 43 62 0
-81 -43 -62 0
81 -43 62 0
81 43 -62 0
-82 43 0
-82 62 0
82 -43 -62 0
-83 43 62 0
-83 -43 -62 0
83 -43 62 0
83 43 -62 0
-84 44 63 0
-84 -44 -63 0
84 -44 63 0
84 44 -63 0
-85 84 82 0
-85 -84 -82 0
85 -84 82 0
85 84 -82 0
-86 44 0
-86 63 0
86 -44 -63 0
-87 44 63 0
-87 -44 -63 0
87 -44 63 0
87 44 -63 0
-88 82 0
-88 87 0
88 -82 -87 0
-89 -86 0
-89 -88 0
89 86 88 0
-90 45 64 0
-90 -45 -64 0
90 -45 64 0
90 45 -64 0
-91 90 -89 0
-91 -90 89 0
91 -90 -89 0
91 90 89 0
-92 45 0
-92 64 0
92 -45 -64 0
-93 45 64 0
-93 -45 -64 0
93 -45 64 0
93 45 -64 0
-94 -89 0
-94 93 0
94 89 -93 0
-95 -92 0
-95 -94 0
95 92 94 0
-96 46 65 0
-96 -46 -65 0
96 -46 65 0
96 46 -65 0
-97 96 -95 0
-97 -96 95 0
97 -96 -95 0
97 96 95 0
-98 46 0
-98 65 0
98 -46 -65 0
-99 46 65 0
-99 -46 -65 0
99 -46 65 0
99 46 -65 0
-100 -95 0
-100 99 0
100 95 -99 0
-101 -98 0
-101 -100 0
101 98 100 0
-102 47 66 0
-102 -47 -66 0
102 -47 66 0
102 47 -66 0
-103 102 -101 0
-103 -102 101 0
103 -102 -101 0
103 102 101 0
-104 47 0
-104 66 0
104 -47 -66 0
-105 47 66 0
-105 -47 -66 0
105 -47 66 0
105 47 -66 0
-106 -101 0
-106 105 0
106 101 -105 0
-107 -104 0
-107 -106 0
107 104 106 0
-108 48 67 0
-108 -48 -67 0
108 -48 67 0
108 48 -67 0
-109 108 -107 0
-109 -108 107 0
109 -108 -107 0
109 108 107 0
-110 48 0
-110 67 0
110 -48 -67 0
-111 48 67 0
-111 -48 -67 0
111 -48 67 0
111 48 -67 0
-112 -107 0
-112 111 0
112 107 -111 0
-113 -110 0
-113 -112 0
113 110 112 0
-114 49 68 0
-114 -49 -68 0
114 -49 68 0
114 49 -68 0
-115 114 -113 0
-115 -114 113 0
115 -114 -113 0
115 114 113 0
-116 49 0
-116 68 0
116 -49 -68 0
-117 49 68 0
-117 -49 -68 0
117 -49 68 0
117 49 -68 0
-118 -113 0
-118 117 0
118 113 -117 0
-119 -116 0
-119 -118 0
119 116 118 0
-120 50 69 0
-120 -50 -69 0
120 -50 69 0
120 50 -69 0
-121 120 -119 0
-121 -120 119 0
121 -120 -119 0
121 120 119 0
-122 50 0
-122 69 0
122 -50 -69 0
-123 50 69 0
-123 -50 -69 0
123 -50 69 0
123 50 -69 0
-124 -119 0
-124 123 0
124 119 -123 0
-125 -122 0
-125 -124 0
125 122 124 0
-126 51 70 0
-126 -51 -70 0
126 -51 70 0
126 51 -70 0
-127 126 -125 0
-127 -126 125 0
127 -126 -125 0
127 126 125 0
-128 51 0
-128 70 0
128 -51 -70 0
-129 51 70 0
-129 -51 -70 0
129 -51 70 0
129 51 -70 0
-130 -125 0
-130 129 0
130 125 -129 0
-131 -128 0
-131 -130 0
131 128 130 0
-132 52 71 0
-132 -52 -71 0
132 -52 71 0
132 52 -71 0
-133 132 -131 0
-133 -132 131 0
133 -132 -131 0
133 132 131 0
-134 52 0
-134 71 0
134 -52 -71 0
-135 52 71 0
-135 -52 -71 0
135 -52 71 0
135 52 -71 0
-136 -131 0
-136 135 0
136 131 -135 0
-137 -134 0
-137 -136 0
137 134 136 0
-138 53 72 0
-138 -53 -72 0
138 -53 72 0
138 53 -72 0
-139 138 -137 0
-139 -138 137 0
139 -138 -137 0
139 138 137 0
-140 53 0
-140 72 0
140 -53 -72 0
-141 53 72 0
-141 -53 -72 0
141 -53 72 0
141 53 -72 0
-142 -137 0
-142 141 0
142 137 -141 0
-143 -140 0
-143 -142 0
143 140 142 0
-144 54 73 0
-144 -54 -73 0
144 -54 73 0
144 54 -73 0
-145 144 -143 0
-145 -144 143 0
145 -144 -143 0
145 144 143 0
-146 54 0
-146 73 0
146 -54 -73 0
-147 54 73 0
-147 -54 -73 0
147 -54 73 0
147 54 -73 0
-148 -143 0
-148 147 0
148 143 -147 0
-149 -146 0
-149 -148 0
149 146 148 0
-150 55 74 0
-150 -55 -74 0
150 -55 74 0
150 55 -74 0
-151 150 -149 0
-151 -150 149 0
151 -150 -149 0
151 150 149 0
-152 55 0
-152 74 0
152 -55 -74 0
-153 55 74 0
-153 -55 -74 0
153 -55 74 0
153 55 -74 0
-154 -149 0
-154 153 0
154 149 -153 0
-155 -152 0
-155 -154 0
155 152 154 0
-156 56 75 0
-156 -56 -75 0
156 -56 75 0
156 56 -75 0
-157 156 -155 0
-157 -156 155 0
157 -156 -155 0
157 156 155 0
-158 56 0
-158 75 0
158 -56 -75 0
-159 56 75 0
-159 -56 -75 0
159 -56 75 0
159 56 -75 0
-160 -155 0
-160 159 0
160 155 -159 0
-161 -158 0
-161 -160 0
161 158 160 0
-162 57 76 0
-162 -57 -76 0
162 -57 76 0
162 57 -76 0
-163 162 -161 0
-163 -162 161 0
163 -162 -161 0
163 162 161 0
-164 57 0
-164 76 0
164 -57 -76 0
-165 57 76 0
-165 -57 -76 0
165 -57 76 0
165 57 -76 0
-166 -161 0
-166 165 0
166 161 -165 0
-167 -164 0
-167 -166 0
167 164 166 0
-168 58 77 0
-168 -58 -77 0
168 -58 77 0
168 58 -77 0
-169 168 -167 0
-169 -168 167 0
169 -168 -167 0
169 168 167 0
-170 58 0
-170 77 0
170 -58 -77 0
-171 58 77 0
-171 -58 -77 0
171 -58 77 0
171 58 -77 0
-172 -167 0
-172 171 0
172 167 -171 0
-173 -170 0
-173 -172 0
173 170 172 0
-174 59 78 0
-174 -59 -78 0
174 -59 78 0
174 59 -78 0
-175 174 -173 0
-175 -174 173 0
175 -174 -173 0
175 174 173 0
-176 59 0
-176 78 0
176 -59 -78 0
-177 59 78 0
-177 -59 -78 0
177 -59 78 0
177 59 -78 0
-178 -173 0
-178 177 0
178 173 -177 0
-179 -176 0
-179 -178 0
179 176 178 0
-180 60 79 0
-180 -60 -79 0
180 -60 79 0
180 60 -79 0
-181 180 -179 0
-181 -180 179 0
181 -180 -179 0
181 180 179 0
-182 60 0
-182 79 0
182 -60 -79 0
-183 60 79 0
-183 -60 -79 0
183 -60 79 0
183 60 -79 0
-184 -179 0
-184 183 0
184 179 -183 0
-185 -182 0
-185 -184 0
185 182 184 0
-186 61 80 0
-186 -61 -80 0
186 -61 80 0
186 61 -80 0
-187 186 -185 0
-187 -186 185 0
187 -186 -185 0
187 186 185 0
-188 61 0
-188 80 0
188 -61 -80 0
-189 61 80 0
-189 -61 -80 0
189 -61 80 0
189 61 -80 0
-190 -185 0
-190 189 0
190 185 -189 0
-191 -188 0
-191 -190 0
191 188 190 0
-192 2 0
-192 24 0
192 -2 -24 0
-193 3 0
-193 24 0
193 -3 -24 0
-194 4 0
-194 24 0
194 -4 -24 0
-195 5 0
-195 24 0
195 -5 -24 0
-196 6 0
-196 24 0
196 -6 -24 0
-197 7 0
-197 24 0
197 -7 -24 0
-198 8 0
-198 24 0
198 -8 -24 0
-199 9 0
-199 24 0
199 -9 -24 0
-200 10 0
-200 24 0
200 -10 -24 0
-201 11 0
-201 24 0
201 -11 -24 0
-202 12 0
-202 24 0
202 -12 -24 0
-203 13 0
-203 24 0
203 -13 -24 0
-204 14 0
-204 24 0
204 -14 -24 0
-205 15 0
-205 24 0
205 -15 -24 0
-206 16 0
-206 24 0
206 -16 -24 0
-207 17 0
-207 24 0
207 -17 -24 0
-208 18 0
-208 24 0
208 -18 -24 0
-209 19 0
-209 24 0
209 -19 -24 0
-210 85 192 0
-210 -85 -192 0
210 -85 192 0
210 85 -192 0
-211 85 0
-211 192 0
211 -85 -192 0
-212 85 192 0
-212 -85 -192 0
212 -85 192 0
212 85 -192 0
-213 91 193 0
-213 -91 -193 0
213 -91 193 0
213 91 -193 0
-214 213 211 0
-214 -213 -211 0
214 -213 211 0
214 213 -211 0
-215 91 0
-215 193 0
215 -91 -193 0
-216 91 193 0
-216 -91 -193 0
216 -91 193 0
216 91 -193 0
-217 211 0
-217 216 0
217 -211 -216 0
-218 -215 0
-218 -217 0
218 215 217 0
-219 97 194 0
-219 -97 -194 0
219 -97 194 0
219 97 -194 0
-220 219 -218 0
-220 -219 218 0
220 -219 -218 0
220 219 218 0
-221 97 0
-221 194 0
221 -97 -194 0
-222 97 194 0
-222 -97 -194 0
222 -97 194 0
222 97 -194 0
-223 -218 0
-223 222 0
223 218 -222 0
-224 -221 0
-224 -223 0
224 221 223 0
-225 103 195 0
-225 -103 -195 0
225 -103 195 0
225 103 -195 0
-226 225 -224 0
-226 -225 224 0
226 -225 -224 0
226 225 224 0
-227 103 0
-227 195 0
227 -103 -195 0
-228 103 195 0
-228 -103 -195 0
228 -103 195 0
228 103 -195 0
-229 -224 0
-229 228 0
229 224 -228 0
-230 -227 0
-230 -229 0
230 227 229 0
-231 109 196 0
-231 -109 -196 0
231 -109 196 0
231 109 -196 0
-232 231 -230 0
-232 -231 230 0
232 -231 -230 0
232 231 230 0
-233 109 0
-233 196 0
233 -109 -196 0
-234 109 196 0
-234 -109 -196 0
234 -109 196 0
234 109 -196 0
-235 -230 0
-235 234 0
235 230 -234 0
-236 -233 0
-236 -235 0
236 233 235 0
-237 115 197 0
-237 -115 -197 0
237 -115 197 0
237 115 -197 0
-238 237 -236 0
-238 -237 236 0
238 -237 -236 0
238 237 236 0
-239 115 0
-239 197 0
239 -115 -197 0
-240 115 197 0
-240 -115 -197 0
240 -115 197 0
240 115 -197 0
-241 -236 0
-241 240 0
241 236 -240 0
-242 -239 0
-242 -241 0
242 239 241 0
-243 121 198 0
-243 -121 -198 0
243 -121 198 0
243 121 -198 0
-244 243 -242 0
-244 -243 242 0
244 -243 -242 0
244 243 242 0
-245 121 0
-245 198 0
245 -121 -198 0
-246 121 198 0
-246 -121 -198 0
246 -121 198 0
246 121 -198 0
-247 -242 0
-247 246 0
247 242 -246 0
-248 -245 0
-248 -247 0
248 245 247 0
-249 127 199 0
-249 -127 -199 0
249 -127 199 0
249 127 -199 0
-250 249 -248 0
-250 -249 248 0
250 -249 -248 0
250 249 248 0
-251 127 0
-251 199 0
251 -127 -199 0
-252 127 199 0
-252 -127 -199 0
252 -127 199 0
252 127 -199 0
-253 -248 0
-253 252 0
253 248 -252 0
-254 -251 0
-254 -253 0
254 251 253 0
-255 133 200 0
-255 -133 -200 0
255 -133 200 0
255 133 -200 0
-256 255 -254 0
-256 -255 254 0
256 -255 -254 0
256 255 254 0
-257 133 0
-257 200 0
257 -133 -200 0
-258 133 200 0
-258 -133 -200 0
258 -133 200 0
258 133 -200 0
-259 -254 0
-259 258 0
259 254 -258 0
-260 -257 0
-260 -259 0
260 257 259 0
-261 139 201 0
-261 -139 -201 0
261 -139 201 0
261 139 -201 0
-262 261 -260 0
-262 -261 260 0
262 -261 -260 0
262 261 260 0
-263 139 0
-263 201 0
263 -139 -201 0
-264 139 201 0
-264 -139 -201 0
264 -139 201 0
264 139 -201 0
-265 -260 0
-265 264 0
265 260 -264 0
-266 -263 0
-266 -265 0
266 263 265 0
-267 145 202 0
-267 -145 -202 0
267 -145 202 0
267 145 -202 0
-268 267 -266 0
-268 -267 266 0
268 -267 -266 0
268 267 266 0
-269 145 0
-269 202 0
269 -145 -202 0
-270 145 202 0
-270 -145 -202 0
270 -145 202 0
270 145 -202 0
-271 -266 0
-271 270 0
271 266 -270 0
-272 -269 0
-272 -271 0
272 269 271 0
-273 151 203 0
-273 -151 -203 0
273 -151 203 0
273 151 -203 0
-274 273 -272 0
-274 -273 272 0
274 -273 -272 0
274 273 272 0
-275 151 0
-275 203 0
275 -151 -203 0
-276 151 203 0
-276 -151 -203 0
276 -151 203 0
276 151 -203 0
-277 -272 0
-277 276 0
277 272 -276 0
-278 -275 0
-278 -277 0
278 275 277 0
-279 157 204 0
-279 -157 -204 0
279 -157 204 0
279 157 -204 0
-280 279 -278 0
-280 -279 278 0
280 -279 -278 0
280 279 278 0
-281 157 0
-281 204 0
281 -157 -204 0
-282 157 204 0
-282 -157 -204 0
282 -157 204 0
282 157 -204 0
-283 -278 0
-283 282 0
283 278 -282 0
-284 -281 0
-284 -283 0
284 281 283 0
-285 163 205 0
-285 -163 -205 0
285 -163 205 0
285 163 -205 0
-286 285 -284 0
-286 -285 284 0
286 -285 -284 0
286 285 284 0
-287 163 0
-287 205 0
287 -163 -205 0
-288 163 205 0
-288 -163 -205 0
288 -163 205 0
288 163 -205 0
-289 -284 0
-289 288 0
289 284 -288 0
-290 -287 0
-290 -289 0
290 287 289 0
-291 169 206 0
-291 -169 -206 0
291 -169 206 0
291 169 -206 0
-292 291 -290 0
-292 -291 290 0
292 -291 -290 0
292 291 290 0
-293 169 0
-293 206 0
293 -169 -206 0
-294 169 206 0
-294 -169 -206 0
294 -169 206 0
294 169 -206 0
-295 -290 0
-295 294 0
295 290 -294 0
-296 -293 0
-296 -295 0
296 293 295 0
-297 175 207 0
-297 -175 -207 0
297 -175 207 0
297 175 -207 0
-298 297 -296 0
-298 -297 296 0
298 -297 -296 0
298 297 296 0
-299 175 0
-299 207 0
299 -175 -207 0
-300 175 207 0
-300 -175 -207 0
300 -175 207 0
300 175 -207 0
-301 -296 0
-301 300 0
301 296 -300 0
-302 -299 0
-302 -301 0
302 299 301 0
-303 181 208 0
-303 -181 -208 0
303 -181 208 0
303 181 -208 0
-304 303 -302 0
-304 -303 302 0
304 -303 -302 0
304 303 302 0
-305 181 0
-305 208 0
305 -181 -208 0
-306 181 208 0
-306 -181 -208 0
306 -181 208 0
306 181 -208 0
-307 -302 0
-307 306 0
307 302 -306 0
-308 -305 0
-308 -307 0
308 305 307 0
-309 187 209 0
-309 -187 -209 0
309 -187 209 0
309 187 -209 0
-310 309 -308 0
-310 -309 308 0
310 -309 -308 0
310 309 308 0
-311 187 0
-311 209 0
311 -187 -209 0
-312 187 209 0
-312 -187 -209 0
312 -187 209 0
312 187 -209 0
-313 -308 0
-313 312 0
313 308 -312 0
-314 -311 0
-314 -313 0
314 311 313 0
-315 2 0
-315 25 0
315 -2 -25 0
-316 3 0
-316 25 0
316 -3 -25 0
-317 4 0
-317 25 0
317 -4 -25 0
-318 5 0
-318 25 0
318 -5 -25 0
-319 6 0
-319 25 0
319 -6 -25 0
-320 7 0
-320 25 0
320 -7 -25 0
-321 8 0
-321 25 0
321 -8 -25 0
-322 9 0
-322 25 0
322 -9 -25 0
-323 10 0
-323 25 0
323 -10 -25 0
-324 11 0
-324 25 0
324 -11 -25 0
-325 12 0
-325 25 0
325 -12 -25 0
-326 13 0
-326 25 0
326 -13 -25 0
-327 14 0
-327 25 0
327 -14 -25 0
-328 15 0
-328 25 0
328 -15 -25 0
-329 16 0
-329 25 0
329 -16 -25 0
-330 17 0
-330 25 0
330 -17 -25 0
-331 18 0
-331 25 0
331 -18 -25 0
-332 214 315 0
-332 -214 -315 0
332 -214 315 0
332 214 -315 0
-333 214 0
-333 315 0
333 -214 -315 0
-334 214 315 0
-334 -214 -315 0
334 -214 315 0
334 214 -315 0
-335 220 316 0
-335 -220 -316 0
335 -220 316 0
335 220 -316 0
-336 335 333 0
-336 -335 -333 0
336 -335 333 0
336 335 -333 0
-337 220 0
-337 316 0
337 -220 -316 0
-338 220 316 0
-338 -220 -316 0
338 -220 316 0
338 220 -316 0
-339 333 0
-339 338 0
339 -333 -338 0
-340 -337 0
-340 -339 0
340 337 339 0
-341 226 317 0
-341 -226 -317 0
341 -226 317 0
341 226 -317 0
-342 341 -340 0
-342 -341 340 0
342 -341 -340 0
342 341 340 0
-343 226 0
-343 317 0
343 -226 -317 0
-344 226 317 0
-344 -226 -317 0
344 -226 317 0
344 226 -317 0
-345 -340 0
-345 344 0
345 340 -344 0
-346 -343 0
-346 -345 0
346 343 345 0
-347 232 318 0
-347 -232 -318 0
347 -232 318 0
347 232 -318 0
-348 347 -346 0
-348 -347 346 0
348 -347 -346 0
348 347 346 0
-349 232 0
-349 318 0
349 -232 -318 0
-350 232 318 0
-350 -232 -318 0
350 -232 318 0
350 232 -318 0
-351 -346 0
-351 350 0
351 346 -350 0
-352 -349 0
-352 -351 0
352 349 351 0
-353 238 319 0
-353 -238 -319 0
353 -238 319 0
353 238 -319 0
-354 353 -352 0
-354 -353 352 0
354 -353 -352 0
354 353 352 0
-355 238 0
-355 319 0
355 -238 -319 0
-356 238 319 0
-356 -238 -319 0
356 -238 319 0
356 238 -319 0
-357 -352 0
-357 356 0
357 352 -356 0
-358 -355 0
-358 -357 0
358 355 357 0
-359 244 320 0
-359 -244 -320 0
359 -244 320 0
359 244 -320 0
-360 359 -358 0
-360 -359 358 0
360 -359 -358 0
360 359 358 0
-361 244 0
-361 320 0
361 -244 -320 0
-362 244 320 0
-362 -244 -320 0
362 -244 320 0
362 244 -320 0
-363 -358 0
-363 362 0
363 358 -362 0
-364 -361 0
-364 -363 0
364 361 363 0
-365 250 321 0
-365 -250 -321 0
365 -250 321 0
365 250 -321 0
-366 365 -364 0
-366 -365 364 0
366 -365 -364 0
366 365 364 0
-367 250 0
-367 321 0
367 -250 -321 0
-368 250 321 0
-368 -250 -321 0
368 -250 321 0
368 250 -321 0
-369 -364 0
-369 368 0
369 364 -368 0
-370 -367 0
-370 -369 0
370 367 369 0
-371 256 322 0
-371 -256 -322 0
371 -256 322 0
371 256 -322 0
-372 371 -370 0
-372 -371 370 0
372 -371 -370 0
372 371 370 0
-373 256 0
-373 322 0
373 -256 -322 0
-374 256 322 0
-374 -256 -322 0
374 -256 322 0
374 256 -322 0
-375 -370 0
-375 374 0
375 370 -374 0
-376 -373 0
-376 -375 0
376 373 375 0
-377 262 323 0
-377 -262 -323 0
377 -262 323 0
377 262 -323 0
-378 377 -376 0
-378 -377 376 0
378 -377 -376 0
378 377 376 0
-379 262 0
-379 323 0
379 -262 -323 0
-380 262 323 0
-380 -262 -323 0
380 -262 323 0
380 262 -323 0
-381 -376 0
-381 380 0
381 376 -380 0
-382 -379 0
-382 -381 0
382 379 381 0
-383 268 324 0
-383 -268 -324 0
383 -268 324 0
383 268 -324 0
-384 383 -382 0
-384 -383 382 0
384 -383 -382 0
384 383 382 0
-385 268 0
-385 324 0
385 -268 -324 0
-386 268 324 0
-386 -268 -324 0
386 -268 324 0
386 268 -324 0
-387 -382 0
-387 386 0
387 382 -386 0
-388 -385 0
-388 -387 0
388 385 387 0
-389 274 325 0
-389 -274 -325 0
389 -274 325 0
389 274 -325 0
-390 389 -388 0
-390 -389 388 0
390 -389 -388 0
390 389 388 0
-391 274 0
-391 325 0
391 -274 -325 0
-392 274 325 0
-392 -274 -325 0
392 -274 325 0
392 274 -325 0
-393 -388 0
-393 392 0
393 388 -392 0
-394 -391 0
-394 -393 0
394 391 393 0
-395 280 326 0
-395 -280 -326 0
395 -280 326 0
395 280 -326 0
-396 395 -394 0
-396 -395 394 0
396 -395 -394 0
396 395 394 0
-397 280 0
-397 326 0
397 -280 -326 0
-398 280 326 0
-398 -280 -326 0
398 -280 326 0
398 280 -326 0
-399 -394 0
-399 398 0
399 394 -398 0
-400 -397 0
-400 -399 0
400 397 399 0
-401 286 327 0
-401 -286 -327 0
401 -286 327 0
401 286 -327 0
-402 401 -400 0
-402 -401 400 0
402 -401 -400 0
402 401 400 0
-403 286 0
-403 327 0
403 -286 -327 0
-404 286 327 0
-404 -286 -327 0
404 -286 327 0
404 286 -327 0
-405 -400 0
-405 404 0
405 400 -404 0
-406 -403 0
-406 -405 0
406 403 405 0
-407 292 328 0
-407 -292 -328 0
407 -292 328 0
407 292 -328 0
-408 407 -406 0
-408 -407 406 0
408 -407 -406 0
408 407 406 0
-409 292 0
-409 328 0
409 -292 -328 0
-410 292 328 0
-410 -292 -328 0
410 -292 328 0
410 292 -328 0
-411 -406 0
-411 410 0
411 406 -410 0
-412 -409 0
-412 -411 0
412 409 411 0
-413 298 329 0
-413 -298 -329 0
413 -298 329 0
413 298 -329 0
-414 413 -412 0
-414 -413 412 0
414 -413 -412 0
414 413 412 0
-415 298 0
-415 329 0
415 -298 -329 0
-416 298 329 0
-416 -298 -329 0
416 -298 329 0
416 298 -329 0
-417 -412 0
-417 416 0
417 412 -416 0
-418 -415 0
-418 -417 0
418 415 417 0
-419 304 330 0
-419 -304 -330 0
419 -304 330 0
419 304 -330 0
-420 419 -418 0
-420 -419 418 0
420 -419 -418 0
420 419 418 0
-421 304 0
-421 330 0
421 -304 -330 0
-422 304 330 0
-422 -304 -330 0
422 -304 330 0
422 304 -330 0
-423 -418 0
-423 422 0
423 418 -422 0
-424 -421 0
-424 -423 0
424 421 423 0
-425 310 331 0
-425 -310 -331 0
425 -310 331 0
425 310 -331 0
-426 425 -424 0
-426 -425 424 0
426 -425 -424 0
426 425 424 0
-427 310 0
-427 331 0
427 -310 -331 0
-428 310 331 0
-428 -310 -331 0
428 -310 331 0
428 310 -331 0
-429 -424 0
-429 428 0
429 424 -428 0
-430 -427 0
-430 -429 0
430 427 429 0
-431 2 0
-431 26 0
431 -2 -26 0
-432 3 0
-432 26 0
432 -3 -26 0
-433 4 0
-433 26 0
433 -4 -26 0
-434 5 0
-434 26 0
434 -5 -26 0
-435 6 0
-435 26 0
435 -6 -26 0
-436 7 0
-436 26 0
436 -7 -26 0
-437 8 0
-437 26 0
437 -8 -26 0
-438 9 0
-438 26 0
438 -9 -26 0
-439 10 0
-439 26 0
439 -10 -26 0
-440 11 0
-440 26 0
440 -11 -26 0
-441 12 0
-441 26 0
441 -12 -26 0
-442 13 0
-442 26 0
442 -13 -26 0
-443 14 0
-443 26 0
443 -14 -26 0
-444 15 0
-444 26 0
444 -15 -26 0
-445 16 0
-445 26 0
445 -16 -26 0
-446 17 0
-446 26 0
446 -17 -26 0
-447 336 431 0
-447 -336 -431 0
447 -336 431 0
447 336 -431 0
-448 336 0
-448 431 0
448 -336 -431 0
-449 336 431 0
-449 -336 -431 0
449 -336 431 0
449 336 -431 0
-450 342 432 0
-450 -342 -432 0
450 -342 432 0
450 342 -432 0
-451 450 448 0
-451 -450 -448 0
451 -450 448 0
451 450 -448 0
-452 342 0
-452 432 0
452 -342 -432 0
-453 342 432 0
-453 -342 -432 0
453 -342 432 0
453 342 -432 0
-454 448 0
-454 453 0
454 -448 -453 0
-455 -452 0
-455 -454 0
455 452 454 0
-456 348 433 0
-456 -348 -433 0
456 -348 433 0
456 348 -433 0
-457 456 -455 0
-457 -456 455 0
457 -456 -455 0
457 456 455 0
-458 348 0
-458 433 0
458 -348 -433 0
-459 348 433 0
-459 -348 -433 0
459 -348 433 0
459 348 -433 0
-460 -455 0
-460 459 0
460 455 -459 0
-461 -458 0
-461 -460 0
461 458 460 0
-462 354 434 0
-462 -354 -434 0
462 -354 434 0
462 354 -434 0
-463 462 -461 0
-463 -462 461 0
463 -462 -461 0
463 462 461 0
-464 354 0
-464 434 0
464 -354 -434 0
-465 354 434 0
-465 -354 -434 0
465 -354 434 0
465 354 -434 0
-466 -461 0
-466 465 0
466 461 -465 0
-467 -464 0
-467 -466 0
467 464 466 0
-468 360 435 0
-468 -360 -435 0
468 -360 435 0
468 360 -435 0
-469 468 -467 0
-469 -468 467 0
469 -468 -467 0
469 468 467 0
-470 360 0
-470 435 0
470 -360 -435 0
-471 360 435 0
-471 -360 -435 0
471 -360 435 0
471 360 -435 0
-472 -467 0
-472 471 0
472 467 -471 0
-473 -470 0
-473 -472 0
473 470 472 0
-474 366 436 0
-474 -366 -436 0
474 -366 436 0
474 366 -436 0
-475 474 -473 0
-475 -474 473 0
475 -474 -473 0
475 474 473 0
-476 366 0
-476 436 0
476 -366 -436 0
-477 366 436 0
-477 -366 -436 0
477 -366 436 0
477 366 -436 0
-478 -473 0
-478 477 0
478 473 -477 0
-479 -476 0
-479 -478 0
479 476 478 0
-480 372 437 0
-480 -372 -437 0
480 -372 437 0
480 372 -437 0
-481 480 -479 0
-481 -480 479 0
481 -480 -479 0
481 480 479 0
-482 372 0
-482 437 0
482 -372 -437 0
-483 372 437 0
-483 -372 -437 0
483 -372 437 0
483 372 -437 0
-484 -479 0
-484 483 0
484 479 -483 0
-485 -482 0
-485 -484 0
485 482 484 0
-486 378 438 0
-486 -378 -438 0
486 -378 438 0
486 378 -438 0
-487 486 -485 0
-487 -486 485 0
487 -486 -485 0
487 486 485 0
-488 378 0
-488 438 0
488 -378 -438 0
-489 378 438 0
-489 -378 -438 0
489 -378 438 0
489 378 -438 0
-490 -485 0
-490 489 0
490 485 -489 0
-491 -488 0
-491 -490 0
491 488 490 0
-492 384 439 0
-492 -384 -439 0
492 -384 439 0
492 384 -439 0
-493 492 -491 0
-493 -492 491 0
493 -492 -491 0
493 492 491 0
-494 384 0
-494 439 0
494 -384 -439 0
-495 384 439 0
-495 -384 -439 0
495 -384 439 0
495 384 -439 0
-496 -491 0
-496 495 0
496 491 -495 0
-497 -494 0
-497 -496 0
497 494 496 0
-498 390 440 0
-498 -390 -440 0
498 -390 440 0
498 390 -440 0
-499 498 -497 0
-499 -498 497 0
499 -498 -497 0
499 498 497 0
-500 390 0
-500 440 0
500 -390 -440 0
-501 390 440 0
-501 -390 -440 0
501 -390 440 0
501 390 -440 0
-502 -497 0
-502 501 0
502 497 -501 0
-503 -500 0
-503 -502 0
503 500 502 0
-504 396 441 0
-504 -396 -441 0
504 -396 441 0
504 396 -441 0
-505 504 -503 0
-505 -504 503 0
505 -504 -503 0
505 504 503 0
-506 396 0
-506 441 0
506 -396 -441 0
-507 396 441 0
-507 -396 -441 0
507 -396 441 0
507 396 -441 0
-508 -503 0
-508 507 0
508 503 -507 0
-509 -506 0
-509 -508 0
509 506 508 0
-510 402 442 0
-510 -402 -442 0
510 -402 442 0
510 402 -442 0
-511 510 -509 0
-511 -510 509 0
511 -510 -509 0
511 510 509 0
-512 402 0
-512 442 0
512 -402 -442 0
-513 402 442 0
-513 -402 -442 0
513 -402 442 0
513 402 -442 0
-514 -509 0
-514 513 0
514 509 -513 0
-515 -512 0
-515 -514 0
515 512 514 0
-516 408 443 0
-516 -408 -443 0
516 -408 443 0
516 408 -443 0
-517 516 -515 0
-517 -516 515 0
517 -516 -515 0
517 516 515 0
-518 408 0
-518 443 0
518 -408 -443 0
-519 408 443 0
-519 -408 -443 0
519 -408 443 0
519 408 -443 0
-520 -515 0
-520 519 0
520 515 -519 0
-521 -518 0
-521 -520 0
521 518 520 0
-522 414 444 0
-522 -414 -444 0
522 -414 444 0
522 414 -444 0
-523 522 -521 0
-523 -522 521 0
523 -522 -521 0
523 522 521 0
-524 414 0
-524 444 0
524 -414 -444 0
-525 414 444 0
-525 -414 -444 0
525 -414 444 0
525 414 -444 0
-526 -521 0
-526 525 0
526 521 -525 0
-527 -524 0
-527 -526 0
527 524 526 0
-528 420 445 0
-528 -420 -445 0
528 -420 445 0
528 420 -445 0
-529 528 -527 0
-529 -528 527 0
529 -528 -527 0
529 528 527 0
-530 420 0
-530 445 0
530 -420 -445 0
-531 420 445 0
-531 -420 -445 0
531 -420 445 0
531 420 -445 0
-532 -527 0
-532 531 0
532 527 -531 0
-533 -530 0
-533 -532 0
533 530 532 0
-534 426 446 0
-534 -426 -446 0
534 -426 446 0
534 426 -446 0
-535 534 -533 0
-535 -534 533 0
535 -534 -533 0
535 534 533 0
-536 426 0
-536 446 0
536 -426 -446 0
-537 426 446 0
-537 -426 -446 0
537 -426 446 0
537 426 -446 0
-538 -533 0
-538 537 0
538 533 -537 0
-539 -536 0
-539 -538 0
539 536 538 0
-540 2 0
-540 27 0
540 -2 -27 0
-541 3 0
-541 27 0
541 -3 -27 0
-542 4 0
-542 27 0
542 -4 -27 0
-543 5 0
-543 27 0
543 -5 -27 0
-544 6 0
-544 27 0
544 -6 -27 0
-545 7 0
-545 27 0
545 -7 -27 0
-546 8 0
-546 27 0
546 -8 -27 0
-547 9 0
-547 27 0
547 -9 -27 0
-548 10 0
-548 27 0
548 -10 -27 0
-549 11 0
-549 27 0
549 -11 -27 0
-550 12 0
-550 27 0
550 -12 -27 0
-551 13 0
-551 27 0
551 -13 -27 0
-552 14 0
-552 27 0
552 -14 -27 0
-553 15 0
-553 27 0
553 -15 -27 0
-554 16 0
-554 27 0
554 -16 -27 0
-555 451 540 0
-555 -451 -540 0
555 -451 540 0
555 451 -540 0
-556 451 0
-556 540 0
556 -451 -540 0
-557 451 540 0
-557 -451 -540 0
557 -451 540 0
557 451 -540 0
-558 457 541 0
-558 -457 -541 0
558 -457 541 0
558 457 -541 0
-559 558 556 0
-559 -558 -556 0
559 -558 556 0
559 558 -556 0
-560 457 0
-560 541 0
560 -457 -541 0
-561 457 541 0
-561 -457 -541 0
561 -457 541 0
561 457 -541 0
-562 556 0
-562 561 0
562 -556 -561 0
-563 -560 0
-563 -562 0
563 560 562 0
-564 463 542 0
-564 -463 -542 0
564 -463 542 0
564 463 -542 0
-565 564 -563 0
-565 -564 563 0
565 -564 -563 0
565 564 563 0
-566 463 0
-566 542 0
566 -463 -542 0
-567 463 542 0
-567 -463 -542 0
567 -463 542 0
567 463 -542 0
-568 -563 0
-568 567 0
568 563 -567 0
-569 -566 0
-569 -568 0
569 566 568 0
-570 469 543 0
-570 -469 -543 0
570 -469 543 0
570 469 -543 0
-571 570 -569 0
-571 -570 569 0
571 -570 -569 0
571 570 569 0
-572 469 0
-572 543 0
572 -469 -543 0
-573 469 543 0
-573 -469 -543 0
573 -469 543 0
573 469 -543 0
-574 -569 0
-574 573 0
574 569 -573 0
-575 -572 0
-575 -574 0
575 572 574 0
-576 475 544 0
-576 -475 -544 0
576 -475 544 0
576 475 -544 0
-577 576 -575 0
-577 -576 575 0
577 -576 -575 0
577 576 575 0
-578 475 0
-578 544 0
578 -475 -544 0
-579 475 544 0
-579 -475 -544 0
579 -475 544 0
579 475 -544 0
-580 -575 0
-580 579 0
580 575 -579 0
-581 -578 0
-581 -580 0
581 578 580 0
-582 481 545 0
-582 -481 -545 0
582 -481 545 0
582 481 -545 0
-583 582 -581 0
-583 -582 581 0
583 -582 -581 0
583 582 581 0
-584 481 0
-584 545 0
584 -481 -545 0
-585 481 545 0
-585 -481 -545 0
585 -481 545 0
585 481 -545 0
-586 -581 0
-586 585 0
586 581 -585 0
-587 -584 0
-587 -586 0
587 584 586 0
-588 487 546 0
-588 -487 -546 0
588 -487 546 0
588 487 -546 0
-589 588 -587 0
-589 -588 587 0
589 -588 -587 0
589 588 587 0
-590 487 0
-590 546 0
590 -487 -546 0
-591 487 546 0
-591 -487 -546 0
591 -487 546 0
591 487 -546 0
-592 -587 0
-592 591 0
592 587 -591 0
-593 -590 0
-593 -592 0
593 590 592 0
-594 493 547 0
-594 -493 -547 0
594 -493 547 0
594 493 -547 0
-595 594 -593 0
-595 -594 593 0
595 -594 -593 0
595 594 593 0
-596 493 0
-596 547 0
596 -493 -547 0
-597 493 547 0
-597 -493 -547 0
597 -493 547 0
597 493 -547 0
-598 -593 0
-598 597 0
598 593 -597 0
-599 -596 0
-599 -598 0
599 596 598 0
-600 499 548 0
-600 -499 -548 0
600 -499 548 0
600 499 -548 0
-601 600 -599 0
-601 -600 599 0
601 -600 -599 0
601 600 599 0
-602 499 0
-602 548 0
602 -499 -548 0
-603 499 548 0
-603 -499 -548 0
603 -499 548 0
603 499 -548 0
-604 -599 0
-604 603 0
604 599 -603 0
-605 -602 0
-605 -604 0
605 602 604 0
-606 505 549 0
-606 -505 -549 0
606 -505 549 0
606 505 -549 0
-607 606 -605 0
-607 -606 605 0
607 -606 -605 0
607 606 605 0
-608 505 0
-608 549 0
608 -505 -549 0
-609 505 549 0
-609 -505 -549 0
609 -505 549 0
609 505 -549 0
-610 -605 0
-610 609 0
610 605 -609 0
-611 -608 0
-611 -610 0
611 608 610 0
-612 511 550 0
-612 -511 -550 0
612 -511 550 0
612 511 -550 0
-613 612 -611 0
-613 -612 611 0
613 -612 -611 0
613 612 611 0
-614 511 0
-614 550 0
614 -511 -550 0
-615 511 550 0
-615 -511 -550 0
615 -511 550 0
615 511 -550 0
-616 -611 0
-616 615 0
616 611 -615 0
-617 -614 0
-617 -616 0
617 614 616 0
-618 517 551 0
-618 -517 -551 0
618 -517 551 0
618 517 -551 0
-619 618 -617 0
-619 -618 617 0
619 -618 -617 0
619 618 617 0
-620 517 0
-620 551 0
620 -517 -551 0
-621 517 551 0
-621 -517 -551 0
621 -517 551 0
621 517 -551 0
-622 -617 0
-622 621 0
622 617 -621 0
-623 -620 0
-623 -622 0
623 620 622 0
-624 523 552 0
-624 -523 -552 0
624 -523 552 0
624 523 -552 0
-625 624 -623 0
-625 -624 623 0
625 -624 -623 0
625 624 623 0
-626 523 0
-626 552 0
626 -523 -552 0
-627 523 552 0
-627 -523 -552 0
627 -523 552 0
627 523 -552 0
-628 -623 0
-628 627 0
628 623 -627 0
-629 -626 0
-629 -628 0
629 626 628 0
-630 529 553 0
-630 -529 -553 0
630 -529 553 0
630 529 -553 0
-631 630 -629 0
-631 -630 629 0
631 -630 -629 0
631 630 629 0
-632 529 0
-632 553 0
632 -529 -553 0
-633 529 553 0
-633 -529 -553 0
633 -529 553 0
633 529 -553 0
-634 -629 0
-634 633 0
634 629 -633 0
-635 -632 0
-635 -634 0
635 632 634 0
-636 535 554 0
-636 -535 -554 0
636 -535 554 0
636 535 -554 0
-637 636 -635 0
-637 -636 635 0
637 -636 -635 0
637 636 635 0
-638 535 0
-638 554 0
638 -535 -554 0
-639 535 554 0
-639 -535 -554 0
639 -535 554 0
639 535 -554 0
-640 -635 0
-640 639 0
640 635 -639 0
-641 -638 0
-641 -640 0
641 638 640 0
-642 2 0
-642 28 0
642 -2 -28 0
-643 3 0
-643 28 0
643 -3 -28 0
-644 4 0
-644 28 0
644 -4 -28 0
-645 5 0
-645 28 0
645 -5 -28 0
-646 6 0
-646 28 0
646 -6 -28 0
-647 7 0
-647 28 0
647 -7 -28 0
-648 8 0
-648 28 0
648 -8 -28 0
-649 9 0
-649 28 0
649 -9 -28 0
-650 10 0
-650 28 0
650 -10 -28 0
-651 11 0
-651 28 0
651 -11 -28 0
-652 12 0
-652 28 0
652 -12 -28 0
-653 13 0
-653 28 0
653 -13 -28 0
-654 14 0
-654 28 0
654 -14 -28 0
-655 15 0
-655 28 0
655 -15 -28 0
-656 559 642 0
-656 -559 -642 0
656 -559 642 0
656 559 -642 0
-657 559 0
-657 642 0
657 -559 -642 0
-658 559 642 0
-658 -559 -642 0
658 -559 642 0
658 559 -642 0
-659 565 643 0
-659 -565 -643 0
659 -565 643 0
659 565 -643 0
-660 659 657 0
-660 -659 -657 0
660 -659 657 0
660 659 -657 0
-661 565 0
-661 643 0
661 -565 -643 0
-662 565 643 0
-662 -565 -643 0
662 -565 643 0
662 565 -643 0
-663 657 0
-663 662 0
663 -657 -662 0
-664 -661 0
-664 -663 0
664 661 663 0
-665 571 644 0
-665 -571 -644 0
665 -571 644 0
665 571 -644 0
-666 665 -664 0
-666 -665 664 0
666 -665 -664 0
666 665 664 0
-667 571 0
-667 644 0
667 -571 -644 0
-668 571 644 0
-668 -571 -644 0
668 -571 644 0
668 571 -644 0
-669 -664 0
-669 668 0
669 664 -668 0
-670 -667 0
-670 -669 0
670 667 669 0
-671 577 645 0
-671 -577 -645 0
671 -577 645 0
671 577 -645 0
-672 671 -670 0
-672 -671 670 0
672 -671 -670 0
672 671 670 0
-673 577 0
-673 645 0
673 -577 -645 0
-674 577 645 0
-674 -577 -645 0
674 -577 645 0
674 577 -645 0
-675 -670 0
-675 674 0
675 670 -674 0
-676 -673 0
-676 -675 0
676 673 675 0
-677 583 646 0
-677 -583 -646 0
677 -583 646 0
677 583 -646 0
-678 677 -676 0
-678 -677 676 0
678 -677 -676 0
678 677 676 0
-679 583 0
-679 646 0
679 -583 -646 0
-680 583 646 0
-680 -583 -646 0
680 -583 646 0
680 583 -646 0
-681 -676 0
-681 680 0
681 676 -680 0
-682 -679 0
-682 -681 0
682 679 681 0
-683 589 647 0
-683 -589 -647 0
683 -589 647 0
683 589 -647 0
-684 683 -682 0
-684 -683 682 0
684 -683 -682 0
684 683 682 0
-685 589 0
-685 647 0
685 -589 -647 0
-686 589 647 0
-686 -589 -647 0
686 -589 647 0
686 589 -647 0
-687 -682 0
-687 686 0
687 682 -686 0
-688 -685 0
-688 -687 0
688 685 687 0
-689 595 648 0
-689 -595 -648 0
689 -595 648 0
689 595 -648 0
-690 689 -688 0
-690 -689 688 0
690 -689 -688 0
690 689 688 0
-691 595 0
-691 648 0
691 -595 -648 0
-692 595 648 0
-692 -595 -648 0
692 -595 648 0
692 595 -648 0
-693 -688 0
-693 692 0
693 688 -692 0
-694 -691 0
-694 -693 0
694 691 693 0
-695 601 649 0
-695 -601 -649 0
695 -601 649 0
695 601 -649 0
-696 695 -694 0
-696 -695 694 0
696 -695 -694 0
696 695 694 0
-697 601 0
-697 649 0
697 -601 -649 0
-698 601 649 0
-698 -601 -649 0
698 -601 649 0
698 601 -649 0
-699 -694 0
-699 698 0
699 694 -698 0
-700 -697 0
-700 -699 0
700 697 699 0
-701 607 650 0
-701 -607 -650 0
701 -607 650 0
701 607 -650 0
-702 701 -700 0
-702 -701 700 0
702 -701 -700 0
702 701 700 0
-703 607 0
-703 650 0
703 -607 -650 0
-704 607 650 0
-704 -607 -650 0
704 -607 650 0
704 607 -650 0
-705 -700 0
-705 704 0
705 700 -704 0
-706 -703 0
-706 -705 0
706 703 705 0
-707 613 651 0
-707 -613 -651 0
707 -613 651 0
707 613 -651 0
-708 707 -706 0
-708 -707 706 0
708 -707 -706 0
708 707 706 0
-709 613 0
-709 651 0
709 -613 -651 0
-710 613 651 0
-710 -613 -651 0
710 -613 651 0
710 613 -651 0
-711 -706 0
-711 710 0
711 706 -710 0
-712 -709 0
-712 -711 0
712 709 711 0
-713 619 652 0
-713 -619 -652 0
713 -619 652 0
713 619 -652 0
-714 713 -712 0
-714 -713 712 0
714 -713 -712 0
714 713 712 0
-715 619 0
-715 652 0
715 -619 -652 0
-716 619 652 0
-716 -619 -652 0
716 -619 652 0
716 619 -652 0
-717 -712 0
-717 716 0
717 712 -716 0
-718 -715 0
-718 -717 0
718 715 717 0
-719 625 653 0
-719 -625 -653 0
719 -625 653 0
719 625 -653 0
-720 719 -718 0
-720 -719 718 0
720 -719 -718 0
720 719 718 0
-721 625 0
-721 653 0
721 -625 -653 0
-722 625 653 0
-722 -625 -653 0
722 -625 653 0
722 625 -653 0
-723 -718 0
-723 722 0
723 718 -722 0
-724 -721 0
-724 -723 0
724 721 723 0
-725 631 654 0
-725 -631 -654 0
725 -631 654 0
725 631 -654 0
-726 725 -724 0
-726 -725 724 0
726 -725 -724 0
726 725 724 0
-727 631 0
-727 654 0
727 -631 -654 0
-728 631 654 0
-728 -631 -654 0
728 -631 654 0
728 631 -654 0
-729 -724 0
-729 728 0
729 724 -728 0
-730 -727 0
-730 -729 0
730 727 729 0
-731 637 655 0
-731 -637 -655 0
731 -637 655 0
731 637 -655 0
-732 731 -730 0
-732 -731 730 0
732 -731 -730 0
732 731 730 0
-733 637 0
-733 655 0
733 -637 -655 0
-734 637 655 0
-734 -637 -655 0
734 -637 655 0
734 637 -655 0
-735 -730 0
-735 734 0
735 730 -734 0
-736 -733 0
-736 -735 0
736 733 735 0
-737 2 0
-737 29 0
737 -2 -29 0
-738 3 0
-738 29 0
738 -3 -29 0
-739 4 0
-739 29 0
739 -4 -29 0
-740 5 0
-740 29 0
740 -5 -29 0
-741 6 0
-741 29 0
741 -6 -29 0
-742 7 0
-742 29 0
742 -7 -29 0
-743 8 0
-743 29 0
743 -8 -29 0
-744 9 0
-744 29 0
744 -9 -29 0
-745 10 0
-745 29 0
745 -10 -29 0
-746 11 0
-746 29 0
746 -11 -29 0
-747 12 0
-747 29 0
747 -12 -29 0
-748 13 0
-748 29 0
748 -13 -29 0
-749 14 0
-749 29 0
749 -14 -29 0
-750 660 737 0
-750 -660 -737 0
750 -660 737 0
750 660 -737 0
-751 660 0
-751 737 0
751 -660 -737 0
-752 660 737 0
-752 -660 -737 0
752 -660 737 0
752 660 -737 0
-753 666 738 0
-753 -666 -738 0
753 -666 738 0
753 666 -738 0
-754 753 751 0
-754 -753 -751 0
754 -753 751 0
754 753 -751 0
-755 666 0
-755 738 0
755 -666 -738 0
-756 666 738 0
-756 -666 -738 0
756 -666 738 0
756 666 -738 0
-757 751 0
-757 756 0
757 -751 -756 0
-758 -755 0
-758 -757 0
758 755 757 0
-759 672 739 0
-759 -672 -739 0
759 -672 739 0
759 672 -739 0
-760 759 -758 0
-760 -759 758 0
760 -759 -758 0
760 759 758 0
-761 672 0
-761 739 0
761 -672 -739 0
-762 672 739 0
-762 -672 -739 0
762 -672 739 0
762 672 -739 0
-763 -758 0
-763 762 0
763 758 -762 0
-764 -761 0
-764 -763 0
764 761 763 0
-765 678 740 0
-765 -678 -740 0
765 -678 740 0
765 678 -740 0
-766 765 -764 0
-766 -765 764 0
766 -765 -764 0
766 765 764 0
-767 678 0
-767 740 0
767 -678 -740 0
-768 678 740 0
-768 -678 -740 0
768 -678 740 0
768 678 -740 0
-769 -764 0
-769 768 0
769 764 -768 0
-770 -767 0
-770 -769 0
770 767 769 0
-771 684 741 0
-771 -684 -741 0
771 -684 741 0
771 684 -741 0
-772 771 -770 0
-772 -771 770 0
772 -771 -770 0
772 771 770 0
-773 684 0
-773 741 0
773 -684 -741 0
-774 684 741 0
-774 -684 -741 0
774 -684 741 0
774 684 -741 0
-775 -770 0
-775 774 0
775 770 -774 0
-776 -773 0
-776 -775 0
776 773 775 0
-777 690 742 0
-777 -690 -742 0
777 -690 742 0
777 690 -742 0
-778 777 -776 0
-778 -777 776 0
778 -777 -776 0
778 777 776 0
-779 690 0
-779 742 0
779 -690 -742 0
-780 690 742 0
-780 -690 -742 0
780 -690 742 0
780 690 -742 0
-781 -776 0
-781 780 0
781 776 -780 0
-782 -779 0
-782 -781 0
782 779 781 0
-783 696 743 0
-783 -696 -743 0
783 -696 743 0
783 696 -743 0
-784 783 -782 0
-784 -783 782 0
784 -783 -782 0
784 783 782 0
-785 696 0
-785 743 0
785 -696 -743 0
-786 696 743 0
-786 -696 -743 0
786 -696 743 0
786 696 -743 0
-787 -782 0
-787 786 0
787 782 -786 0
-788 -785 0
-788 -787 0
788 785 787 0
-789 702 744 0
-789 -702 -744 0
789 -702 744 0
789 702 -744 0
-790 789 -788 0
-790 -789 788 0
790 -789 -788 0
790 789 788 0
-791 702 0
-791 744 0
791 -702 -744 0
-792 702 744 0
-792 -702 -744 0
792 -702 744 0
792 702 -744 0
-793 -788 0
-793 792 0
793 788 -792 0
-794 -791 0
-794 -793 0
794 791 793 0
-795 708 745 0
-795 -708 -745 0
795 -708 745 0
795 708 -745 0
-796 795 -794 0
-796 -795 794 0
796 -795 -794 0
796 795 794 0
-797 708 0
-797 745 0
797 -708 -745 0
-798 708 745 0
-798 -708 -745 0
798 -708 745 0
798 708 -745 0
-799 -794 0
-799 798 0
799 794 -798 0
-800 -797 0
-800 -799 0
800 797 799 0
-801 714 746 0
-801 -714 -746 0
801 -714 746 0
801 714 -746 0
-802 801 -800 0
-802 -801 800 0
802 -801 -800 0
802 801 800 0
-803 714 0
-803 746 0
803 -714 -746 0
-804 714 746 0
-804 -714 -746 0
804 -714 746 0
804 714 -746 0
-805 -800 0
-805 804 0
805 800 -804 0
-806 -803 0
-806 -805 0
806 803 805 0
-807 720 747 0
-807 -720 -747 0
807 -720 747 0
807 720 -747 0
-808 807 -806 0
-808 -807 806 0
808 -807 -806 0
808 807 806 0
-809 720 0
-809 747 0
809 -720 -747 0
-810 720 747 0
-810 -720 -747 0
810 -720 747 0
810 720 -747 0
-811 -806 0
-811 810 0
811 806 -810 0
-812 -809 0
-812 -811 0
812 809 811 0
-813 726 748 0
-813 -726 -748 0
813 -726 748 0
813 726 -748 0
-814 813 -812 0
-814 -813 812 0
814 -813 -812 0
814 813 812 0
-815 726 0
-815 748 0
815 -726 -748 0
-816 726 748 0
-816 -726 -748 0
816 -726 748 0
816 726 -748 0
-817 -812 0
-817 816 0
817 812 -816 0
-818 -815 0
-818 -817 0
818 815 817 0
-819 732 749 0
-819 -732 -749 0
819 -732 749 0
819 732 -749 0
-820 819 -818 0
-820 -819 818 0
820 -819 -818 0
820 819 818 0
-821 732 0
-821 749 0
821 -732 -749 0
-822 732 749 0
-822 -732 -749 0
822 -732 749 0
822 732 -749 0
-823 -818 0
-823 822 0
823 818 -822 0
-824 -821 0
-824 -823 0
824 821 823 0
-825 2 0
-825 30 0
825 -2 -30 0
-826 3 0
-826 30 0
826 -3 -30 0
-827 4 0
-827 30 0
827 -4 -30 0
-828 5 0
-828 30 0
828 -5 -30 0
-829 6 0
-829 30 0
829 -6 -30 0
-830 7 0
-830 30 0
830 -7 -30 0
-831 8 0
-831 30 0
831 -8 -30 0
-832 9 0
-832 30 0
832 -9 -30 0
-833 10 0
-833 30 0
833 -10 -30 0
-834 11 0
-834 30 0
834 -11 -30 0
-835 12 0
-835 30 0
835 -12 -30 0
-836 13 0
-836 30 0
836 -13 -30 0
-837 754 825 0
-837 -754 -825 0
837 -754 825 0
837 754 -825 0
-838 754 0
-838 825 0
838 -754 -825 0
-839 754 825 0
-839 -754 -825 0
839 -754 825 0
839 754 -825 0
-840 760 826 0
-840 -760 -826 0
840 -760 826 0
840 760 -826 0
-841 840 838 0
-841 -840 -838 0
841 -840 838 0
841 840 -838 0
-842 760 0
-842 826 0
842 -760 -826 0
-843 760 826 0
-843 -760 -826 0
843 -760 826 0
843 760 -826 0
-844 838 0
-844 843 0
844 -838 -843 0
-845 -842 0
-845 -844 0
845 842 844 0
-846 766 827 0
-846 -766 -827 0
846 -766 827 0
846 766 -827 0
-847 846 -845 0
-847 -846 845 0
847 -846 -845 0
847 846 845 0
-848 766 0
-848 827 0
848 -766 -827 0
-849 766 827 0
-849 -766 -827 0
849 -766 827 0
849 766 -827 0
-850 -845 0
-850 849 0
850 845 -849 0
-851 -848 0
-851 -850 0
851 848 850 0
-852 772 828 0
-852 -772 -828 0
852 -772 828 0
852 772 -828 0
-853 852 -851 0
-853 -852 851 0
853 -852 -851 0
853 852 851 0
-854 772 0
-854 828 0
854 -772 -828 0
-855 772 828 0
-855 -772 -828 0
855 -772 828 0
855 772 -828 0
-856 -851 0
-856 855 0
856 851 -855 0
-857 -854 0
-857 -856 0
857 854 856 0
-858 778 829 0
-858 -778 -829 0
858 -778 829 0
858 778 -829 0
-859 858 -857 0
-859 -858 857 0
859 -858 -857 0
859 858 857 0
-860 778 0
-860 829 0
860 -778 -829 0
-861 778 829 0
-861 -778 -829 0
861 -778 829 0
861 778 -829 0
-862 -857 0
-862 861 0
862 857 -861 0
-863 -860 0
-863 -862 0
863 860 862 0
-864 784 830 0
-864 -784 -830 0
864 -784 830 0
864 784 -830 0
-865 864 -863 0
-865 -864 863 0
865 -864 -863 0
865 864 863 0
-866 784 0
-866 830 0
866 -784 -830 0
-867 784 830 0
-867 -784 -830 0
867 -784 830 0
867 784 -830 0
-868 -863 0
-868 867 0
868 863 -867 0
-869 -866 0
-869 -868 0
869 866 868 0
-870 790 831 0
-870 -790 -831 0
870 -790 831 0
870 790 -831 0
-871 870 -869 0
-871 -870 869 0
871 -870 -869 0
871 870 869 0
-872 790 0
-872 831 0
872 -790 -831 0
-873 790 831 0
-873 -790 -831 0
873 -790 831 0
873 790 -831 0
-874 -869 0
-874 873 0
874 869 -873 0
-875 -872 0
-875 -874 0
875 872 874 0
-876 796 832 0
-876 -796 -832 0
876 -796 832 0
876 796 -832 0
-877 876 -875 0
-877 -876 875 0
877 -876 -875 0
877 876 875 0
-878 796 0
-878 832 0
878 -796 -832 0
-879 796 832 0
-879 -796 -832 0
879 -796 832 0
879 796 -832 0
-880 -875 0
-880 879 0
880 875 -879 0
-881 -878 0
-881 -880 0
881 878 880 0
-882 802 833 0
-882 -802 -833 0
882 -802 833 0
882 802 -833 0
-883 882 -881 0
-883 -882 881 0
883 -882 -881 0
883 882 881 0
-884 802 0
-884 833 0
884 -802 -833 0
-885 802 833 0
-885 -802 -833 0
885 -802 833 0
885 802 -833 0
-886 -881 0
-886 885 0
886 881 -885 0
-887 -884 0
-887 -886 0
887 884 886 0
-888 808 834 0
-888 -808 -834 0
888 -808 834 0
888 808 -834 0
-889 888 -887 0
-889 -888 887 0
889 -888 -887 0
889 888 887 0
-890 808 0
-890 834 0
890 -808 -834 0
-891 808 834 0
-891 -808 -834 0
891 -808 834 0
891 808 -834 0
-892 -887 0
-892 891 0
892 887 -891 0
-893 -890 0
-893 -892 0
893 890 892 0
-894 814 835 0
-894 -814 -835 0
894 -814 835 0
894 814 -835 0
-895 894 -893 0
-895 -894 893 0
895 -894 -893 0
895 894 893 0
-896 814 0
-896 835 0
896 -814 -835 0
-897 814 835 0
-897 -814 -835 0
897 -814 835 0
897 814 -835 0
-898 -893 0
-898 897 0
898 893 -897 0
-899 -896 0
-899 -898 0
899 896 898 0
-900 820 836 0
-900 -820 -836 0
900 -820 836 0
900 820 -836 0
-901 900 -899 0
-901 -900 899 0
901 -900 -899 0
901 900 899 0
-902 820 0
-902 836 0
902 -820 -836 0
-903 820 836 0
-903 -820 -836 0
903 -820 836 0
903 820 -836 0
-904 -899 0
-904 903 0
904 899 -903 0
-905 -902 0
-905 -904 0
905 902 904 0
-906 2 0
-906 31 0
906 -2 -31 0
-907 3 0
-907 31 0
907 -3 -31 0
-908 4 0
-908 31 0
908 -4 -31 0
-909 5 0
-909 31 0
909 -5 -31 0
-910 6 0
-910 31 0
910 -6 -31 0
-911 7 0
-911 31 0
911 -7 -31 0
-912 8 0
-912 31 0
912 -8 -31 0
-913 9 0
-913 31 0
913 -9 -31 0
-914 10 0
-914 31 0
914 -10 -31 0
-915 11 0
-915 31 0
915 -11 -31 0
-916 12 0
-916 31 0
916 -12 -31 0
-917 841 906 0
-917 -841 -906 0
917 -841 906 0
917 841 -906 0
-918 841 0
-918 906 0
918 -841 -906 0
-919 841 906 0
-919 -841 -906 0
919 -841 906 0
919 841 -906 0
-920 847 907 0
-920 -847 -907 0
920 -847 907 0
920 847 -907 0
-921 920 918 0
-921 -920 -918 0
921 -920 918 0
921 920 -918 0
-922 847 0
-922 907 0
922 -847 -907 0
-923 847 907 0
-923 -847 -907 0
923 -847 907 0
923 847 -907 0
-924 918 0
-924 923 0
924 -918 -923 0
-925 -922 0
-925 -924 0
925 922 924 0
-926 853 908 0
-926 -853 -908 0
926 -853 908 0
926 853 -908 0
-927 926 -925 0
-927 -926 925 0
927 -926 -925 0
927 926 925 0
-928 853 0
-928 908 0
928 -853 -908 0
-929 853 908 0
-929 -853 -908 0
929 -853 908 0
929 853 -908 0
-930 -925 0
-930 929 0
930 925 -929 0
-931 -928 0
-931 -930 0
931 928 930 0
-932 859 909 0
-932 -859 -909 0
932 -859 909 0
932 859 -909 0
-933 932 -931 0
-933 -932 931 0
933 -932 -931 0
933 932 931 0
-934 859 0
-934 909 0
934 -859 -909 0
-935 859 909 0
-935 -859 -909 0
935 -859 909 0
935 859 -909 0
-936 -931 0
-936 935 0
936 931 -935 0
-937 -934 0
-937 -936 0
937 934 936 0
-938 865 910 0
-938 -865 -910 0
938 -865 910 0
938 865 -910 0
-939 938 -937 0
-939 -938 937 0
939 -938 -937 0
939 938 937 0
-940 865 0
-940 910 0
940 -865 -910 0
-941 865 910 0
-941 -865 -910 0
941 -865 910 0
941 865 -910 0
-942 -937 0
-942 941 0
942 937 -941 0
-943 -940 0
-943 -942 0
943 940 942 0
-944 871 911 0
-944 -871 -911 0
944 -871 911 0
944 871 -911 0
-945 944 -943 0
-945 -944 943 0
945 -944 -943 0
945 944 943 0
-946 871 0
-946 911 0
946 -871 -911 0
-947 871 911 0
-947 -871 -911 0
947 -871 911 0
947 871 -911 0
-948 -943 0
-948 947 0
948 943 -947 0
-949 -946 0
-949 -948 0
949 946 948 0
-950 877 912 0
-950 -877 -912 0
950 -877 912 0
950 877 -912 0
-951 950 -949 0
-951 -950 949 0
951 -950 -949 0
951 950 949 0
-952 877 0
-952 912 0
952 -877 -912 0
-953 877 912 0
-953 -877 -912 0
953 -877 912 0
953 877 -912 0
-954 -949 0
-954 953 0
954 949 -953 0
-955 -952 0
-955 -954 0
955 952 954 0
-956 883 913 0
-956 -883 -913 0
956 -883 913 0
956 883 -913 0
-957 956 -955 0
-957 -956 955 0
957 -956 -955 0
957 956 955 0
-958 883 0
-958 913 0
958 -883 -913 0
-959 883 913 0
-959 -883 -913 0
959 -883 913 0
959 883 -913 0
-960 -955 0
-960 959 0
960 955 -959 0
-961 -958 0
-961 -960 0
961 958 960 0
-962 889 914 0
-962 -889 -914 0
962 -889 914 0
962 889 -914 0
-963 962 -961 0
-963 -962 961 0
963 -962 -961 0
963 962 961 0
-964 889 0
-964 914 0
964 -889 -914 0
-965 889 914 0
-965 -889 -914 0
965 -889 914 0
965 889 -914 0
-966 -961 0
-966 965 0
966 961 -965 0
-967 -964 0
-967 -966 0
967 964 966 0
-968 895 915 0
-968 -895 -915 0
968 -895 915 0
968 895 -915 0
-969 968 -967 0
-969 -968 967 0
969 -968 -967 0
969 968 967 0
-970 895 0
-970 915 0
970 -895 -915 0
-971 895 915 0
-971 -895 -915 0
971 -895 915 0
971 895 -915 0
-972 -967 0
-972 971 0
972 967 -971 0
-973 -970 0
-973 -972 0
973 970 972 0
-974 901 916 0
-974 -901 -916 0
974 -901 916 0
974 901 -916 0
-975 974 -973 0
-975 -974 973 0
975 -974 -973 0
975 974 973 0
-976 901 0
-976 916 0
976 -901 -916 0
-977 901 916 0
-977 -901 -916 0
977 -901 916 0
977 901 -916 0
-978 -973 0
-978 977 0
978 973 -977 0
-979 -976 0
-979 -978 0
979 976 978 0
-980 2 0
-980 32 0
980 -2 -32 0
-981 3 0
-981 32 0
981 -3 -32 0
-982 4 0
-982 32 0
982 -4 -32 0
-983 5 0
-983 32 0
983 -5 -32 0
-984 6 0
-984 32 0
984 -6 -32 0
-985 7 0
-985 32 0
985 -7 -32 0
-986 8 0
-986 32 0
986 -8 -32 0
-987 9 0
-987 32 0
987 -9 -32 0
-988 10 0
-988 32 0
988 -10 -32 0
-989 11 0
-989 32 0
989 -11 -32 0
-990 921 980 0
-990 -921 -980 0
990 -921 980 0
990 921 -980 0
-991 921 0
-991 980 0
991 -921 -980 0
-992 921 980 0
-992 -921 -980 0
992 -921 980 0
992 921 -980 0
-993 927 981 0
-993 -927 -981 0
993 -927 981 0
993 927 -981 0
-994 993 991 0
-994 -993 -991 0
994 -993 991 0
994 993 -991 0
-995 927 0
-995 981 0
995 -927 -981 0
-996 927 981 0
-996 -927 -981 0
996 -927 981 0
996 927 -981 0
-997 991 0
-997 996 0
997 -991 -996 0
-998 -995 0
-998 -997 0
998 995 997 0
-999 933 982 0
-999 -933 -982 0
999 -933 982 0
999 933 -982 0
-1000 999 -998 0
-1000 -999 998 0
1000 -999 -998 0
1000 999 998 0
-1001 933 0
-1001 982 0
1001 -933 -982 0
-1002 933 982 0
-1002 -933 -982 0
1002 -933 982 0
1002 933 -982 0
-1003 -998 0
-1003 1002 0
1003 998 -1002 0
-1004 -1001 0
-1004 -1003 0
1004 1001 1003 0
-1005 939 983 0
-1005 -939 -983 0
1005 -939 983 0
1005 939 -983 0
-1006 1005 -1004 0
-1006 -1005 1004 0
1006 -1005 -1004 0
1006 1005 1004 0
-1007 939 0
-1007 983 0
1007 -939 -983 0
-1008 939 983 0
-1008 -939 -983 0
1008 -939 983 0
1008 939 -983 0
-1009 -1004 0
-1009 1008 0
1009 1004 -1008 0
-1010 -1007 0
-1010 -1009 0
1010 1007 1009 0
-1011 945 984 0
-1011 -945 -984 0
1011 -945 984 0
1011 945 -984 0
-1012 1011 -1010 0
-1012 -1011 1010 0
1012 -1011 -1010 0
1012 1011 1010 0
-1013 945 0
-1013 984 0
1013 -945 -984 0
-1014 945 984 0
-1014 -945 -984 0
1014 -945 984 0
1014 945 -984 0
-1015 -1010 0
-1015 1014 0
1015 1010 -1014 0
-1016 -1013 0
-1016 -1015 0
1016 1013 1015 0
-1017 951 985 0
-1017 -951 -985 0
1017 -951 985 0
1017 951 -985 0
-1018 1017 -1016 0
-1018 -1017 1016 0
1018 -1017 -1016 0
1018 1017 1016 0
-1019 951 0
-1019 985 0
1019 -951 -985 0
-1020 951 985 0
-1020 -951 -985 0
1020 -951 985 0
1020 951 -985 0
-1021 -1016 0
-1021 1020 0
1021 1016 -1020 0
-1022 -1019 0
-1022 -1021 0
1022 1019 1021 0
-1023 957 986 0
-1023 -957 -986 0
1023 -957 986 0
1023 957 -986 0
-1024 1023 -1022 0
-1024 -1023 1022 0
1024 -1023 -1022 0
1024 1023 1022 0
-1025 957 0
-1025 986 0
1025 -957 -986 0
-1026 957 986 0
-1026 -957 -986 0
1026 -957 986 0
1026 957 -986 0
-1027 -1022 0
-1027 1026 0
1027 1022 -1026 0
-1028 -1025 0
-1028 -1027 0
1028 1025 1027 0
-1029 963 987 0
-1029 -963 -987 0
1029 -963 987 0
1029 963 -987 0
-1030 1029 -1028 0
-1030 -1029 1028 0
1030 -1029 -1028 0
1030 1029 1028 0
-1031 963 0
-1031 987 0
1031 -963 -987 0
-1032 963 987 0
-1032 -963 -987 0
1032 -963 987 0
1032 963 -987 0
-1033 -1028 0
-1033 1032 0
1033 1028 -1032 0
-1034 -1031 0
-1034 -1033 0
1034 1031 1033 0
-1035 969 988 0
-1035 -969 -988 0
1035 -969 988 0
1035 969 -988 0
-1036 1035 -1034 0
-1036 -1035 1034 0
1036 -1035 -1034 0
1036 1035 1034 0
-1037 969 0
-1037 988 0
1037 -969 -988 0
-1038 969 988 0
-1038 -969 -988 0
1038 -969 988 0
1038 969 -988 0
-1039 -1034 0
-1039 1038 0
1039 1034 -1038 0
-1040 -1037 0
-1040 -1039 0
1040 1037 1039 0
-1041 975 989 0
-1041 -975 -989 0
1041 -975 989 0
1041 975 -989 0
-1042 1041 -1040 0
-1042 -1041 1040 0
1042 -1041 -1040 0
1042 1041 1040 0
-1043 975 0
-1043 989 0
1043 -975 -989 0
-1044 975 989 0
-1044 -975 -989 0
1044 -975 989 0
1044 975 -989 0
-1045 -1040 0
-1045 1044 0
1045 1040 -1044 0
-1046 -1043 0
-1046 -1045 0
1046 1043 1045 0
-1047 2 0
-1047 33 0
1047 -2 -33 0
-1048 3 0
-1048 33 0
1048 -3 -33 0
-1049 4 0
-1049 33 0
1049 -4 -33 0
-1050 5 0
-1050 33 0
1050 -5 -33 0
-1051 6 0
-1051 33 0
1051 -6 -33 0
-1052 7 0
-1052 33 0
1052 -7 -33 0
-1053 8 0
-1053 33 0
1053 -8 -33 0
-1054 9 0
-1054 33 0
1054 -9 -33 0
-1055 10 0
-1055 33 0
1055 -10 -33 0
-1056 994 1047 0
-1056 -994 -1047 0
1056 -994 1047 0
1056 994 -1047 0
-1057 994 0
-1057 1047 0
1057 -994 -1047 0
-1058 994 1047 0
-1058 -994 -1047 0
1058 -994 1047 0
1058 994 -1047 0
-1059 1000 1048 0
-1059 -1000 -1048 0
1059 -1000 1048 0
1059 1000 -1048 0
-1060 1059 1057 0
-1060 -1059 -1057 0
1060 -1059 1057 0
1060 1059 -1057 0
-1061 1000 0
-1061 1048 0
1061 -1000 -1048 0
-1062 1000 1048 0
-1062 -1000 -1048 0
1062 -1000 1048 0
1062 1000 -1048 0
-1063 1057 0
-1063 1062 0
1063 -1057 -1062 0
-1064 -1061 0
-1064 -1063 0
1064 1061 1063 0
-1065 1006 1049 0
-1065 -1006 -1049 0
1065 -1006 1049 0
1065 1006 -1049 0
-1066 1065 -1064 0
-1066 -1065 1064 0
1066 -1065 -1064 0
1066 1065 1064 0
-1067 1006 0
-1067 1049 0
1067 -1006 -1049 0
-1068 1006 1049 0
-1068 -1006 -1049 0
1068 -1006 1049 0
1068 1006 -1049 0
-1069 -1064 0
-1069 1068 0
1069 1064 -1068 0
-1070 -1067 0
-1070 -1069 0
1070 1067 1069 0
-1071 1012 1050 0
-1071 -1012 -1050 0
1071 -1012 1050 0
1071 1012 -1050 0
-1072 1071 -1070 0
-1072 -1071 1070 0
1072 -1071 -1070 0
1072 1071 1070 0
-1073 1012 0
-1073 1050 0
1073 -1012 -1050 0
-1074 1012 1050 0
-1074 -1012 -1050 0
1074 -1012 1050 0
1074 1012 -1050 0
-1075 -1070 0
-1075 1074 0
1075 1070 -1074 0
-1076 -1073 0
-1076 -1075 0
1076 1073 1075 0
-1077 1018 1051 0
-1077 -1018 -1051 0
1077 -1018 1051 0
1077 1018 -1051 0
-1078 1077 -1076 0
-1078 -1077 1076 0
1078 -1077 -1076 0
1078 1077 1076 0
-1079 1018 0
-1079 1051 0
1079 -1018 -1051 0
-1080 1018 1051 0
-1080 -1018 -1051 0
1080 -1018 1051 0
1080 1018 -1051 0
-1081 -1076 0
-1081 1080 0
1081 1076 -1080 0
-1082 -1079 0
-1082 -1081 0
1082 1079 1081 0
-1083 1024 1052 0
-1083 -1024 -1052 0
1083 -1024 1052 0
1083 1024 -1052 0
-1084 1083 -1082 0
-1084 -1083 1082 0
1084 -1083 -1082 0
1084 1083 1082 0
-1085 1024 0
-1085 1052 0
1085 -1024 -1052 0
-1086 1024 1052 0
-1086 -1024 -1052 0
1086 -1024 1052 0
1086 1024 -1052 0
-1087 -1082 0
-1087 1086 0
1087 1082 -1086 0
-1088 -1085 0
-1088 -1087 0
1088 1085 1087 0
-1089 1030 1053 0
-1089 -1030 -1053 0
1089 -1030 1053 0
1089 1030 -1053 0
-1090 1089 -1088 0
-1090 -1089 1088 0
1090 -1089 -1088 0
1090 1089 1088 0
-1091 1030 0
-1091 1053 0
1091 -1030 -1053 0
-1092 1030 1053 0
-1092 -1030 -1053 0
1092 -1030 1053 0
1092 1030 -1053 0
-1093 -1088 0
-1093 1092 0
1093 1088 -1092 0
-1094 -1091 0
-1094 -1093 0
1094 1091 1093 0
-1095 1036 1054 0
-1095 -1036 -1054 0
1095 -1036 1054 0
1095 1036 -1054 0
-1096 1095 -1094 0
-1096 -1095 1094 0
1096 -1095 -1094 0
1096 1095 1094 0
-1097 1036 0
-1097 1054 0
1097 -1036 -1054 0
-1098 1036 1054 0
-1098 -1036 -1054 0
1098 -1036 1054 0
1098 1036 -1054 0
-1099 -1094 0
-1099 1098 0
1099 1094 -1098 0
-1100 -1097 0
-1100 -1099 0
1100 1097 1099 0
-1101 1042 1055 0
-1101 -1042 -1055 0
1101 -1042 1055 0
1101 1042 -1055 0
-1102 1101 -1100 0
-1102 -1101 1100 0
1102 -1101 -1100 0
1102 1101 1100 0
-1103 1042 0
-1103 1055 0
1103 -1042 -1055 0
-1104 1042 1055 0
-1104 -1042 -1055 0
1104 -1042 1055 0
1104 1042 -1055 0
-1105 -1100 0
-1105 1104 0
1105 1100 -1104 0
-1106 -1103 0
-1106 -1105 0
1106 1103 1105 0
-1107 2 0
-1107 34 0
1107 -2 -34 0
-1108 3 0
-1108 34 0
1108 -3 -34 0
-1109 4 0
-1109 34 0
1109 -4 -34 0
-1110 5 0
-1110 34 0
1110 -5 -34 0
-1111 6 0
-1111 34 0
1111 -6 -34 0
-1112 7 0
-1112 34 0
1112 -7 -34 0
-1113 8 0
-1113 34 0
1113 -8 -34 0
-1114 9 0
-1114 34 0
1114 -9 -34 0
-1115 1060 1107 0
-1115 -1060 -1107 0
1115 -1060 1107 0
1115 1060 -1107 0
-1116 1060 0
-1116 1107 0
1116 -1060 -1107 0
-1117 1060 1107 0
-1117 -1060 -1107 0
1117 -1060 1107 0
1117 1060 -1107 0
-1118 1066 1108 0
-1118 -1066 -1108 0
1118 -1066 1108 0
1118 1066 -1108 0
-1119 1118 1116 0
-1119 -1118 -1116 0
1119 -1118 1116 0
1119 1118 -1116 0
-1120 1066 0
-1120 1108 0
1120 -1066 -1108 0
-1121 1066 1108 0
-1121 -1066 -1108 0
1121 -1066 1108 0
1121 1066 -1108 0
-1122 1116 0
-1122 1121 0
1122 -1116 -1121 0
-1123 -1120 0
-1123 -1122 0
1123 1120 1122 0
-1124 1072 1109 0
-1124 -1072 -1109 0
1124 -1072 1109 0
1124 1072 -1109 0
-1125 1124 -1123 0
-1125 -1124 1123 0
1125 -1124 -1123 0
1125 1124 1123 0
-1126 1072 0
-1126 1109 0
1126 -1072 -1109 0
-1127 1072 1109 0
-1127 -1072 -1109 0
1127 -1072 1109 0
1127 1072 -1109 0
-1128 -1123 0
-1128 1127 0
1128 1123 -1127 0
-1129 -1126 0
-1129 -1128 0
1129 1126 1128 0
-1130 1078 1110 0
-1130 -1078 -1110 0
1130 -1078 1110 0
1130 1078 -1110 0
-1131 1130 -1129 0
-1131 -1130 1129 0
1131 -1130 -1129 0
1131 1130 1129 0
-1132 1078 0
-1132 1110 0
1132 -1078 -1110 0
-1133 1078 1110 0
-1133 -1078 -1110 0
1133 -1078 1110 0
1133 1078 -1110 0
-1134 -1129 0
-1134 1133 0
1134 1129 -1133 0
-1135 -1132 0
-1135 -1134 0
1135 1132 1134 0
-1136 1084 1111 0
-1136 -1084 -1111 0
1136 -1084 1111 0
1136 1084 -1111 0
-1137 1136 -1135 0
-1137 -1136 1135 0
1137 -1136 -1135 0
1137 1136 1135 0
-1138 1084 0
-1138 1111 0
1138 -1084 -1111 0
-1139 1084 1111 0
-1139 -1084 -1111 0
1139 -1084 1111 0
1139 1084 -1111 0
-1140 -1135 0
-1140 1139 0
1140 1135 -1139 0
-1141 -1138 0
-1141 -1140 0
1141 1138 1140 0
-1142 1090 1112 0
-1142 -1090 -1112 0
1142 -1090 1112 0
1142 1090 -1112 0
-1143 1142 -1141 0
-1143 -1142 1141 0
1143 -1142 -1141 0
1143 1142 1141 0
-1144 1090 0
-1144 1112 0
1144 -1090 -1112 0
-1145 1090 1112 0
-1145 -1090 -1112 0
1145 -1090 1112 0
1145 1090 -1112 0
-1146 -1141 0
-1146 1145 0
1146 1141 -1145 0
-1147 -1144 0
-1147 -1146 0
1147 1144 1146 0
-1148 1096 1113 0
-1148 -1096 -1113 0
1148 -1096 1113 0
1148 1096 -1113 0
-1149 1148 -1147 0
-1149 -1148 1147 0
1149 -1148 -1147 0
1149 1148 1147 0
-1150 1096 0
-1150 1113 0
1150 -1096 -1113 0
-1151 1096 1113 0
-1151 -1096 -1113 0
1151 -1096 1113 0
1151 1096 -1113 0
-1152 -1147 0
-1152 1151 0
1152 1147 -1151 0
-1153 -1150 0
-1153 -1152 0
1153 1150 1152 0
-1154 1102 1114 0
-1154 -1102 -1114 0
1154 -1102 1114 0
1154 1102 -1114 0
-1155 1154 -1153 0
-1155 -1154 1153 0
1155 -1154 -1153 0
1155 1154 1153 0
-1156 1102 0
-1156 1114 0
1156 -1102 -1114 0
-1157 1102 1114 0
-1157 -1102 -1114 0
1157 -1102 1114 0
1157 1102 -1114 0
-1158 -1153 0
-1158 1157 0
1158 1153 -1157 0
-1159 -1156 0
-1159 -1158 0
1159 1156 1158 0
-1160 2 0
-1160 35 0
1160 -2 -35 0
-1161 3 0
-1161 35 0
1161 -3 -35 0
-1162 4 0
-1162 35 0
1162 -4 -35 0
-1163 5 0
-1163 35 0
1163 -5 -35 0
-1164 6 0
-1164 35 0
1164 -6 -35 0
-1165 7 0
-1165 35 0
1165 -7 -35 0
-1166 8 0
-1166 35 0
1166 -8 -35 0
-1167 1119 1160 0
-1167 -1119 -1160 0
1167 -1119 1160 0
1167 1119 -1160 0
-1168 1119 0
-1168 1160 0
1168 -1119 -1160 0
-1169 1119 1160 0
-1169 -1119 -1160 0
1169 -1119 1160 0
1169 1119 -1160 0
-1170 1125 1161 0
-1170 -1125 -1161 0
1170 -1125 1161 0
1170 1125 -1161 0
-1171 1170 1168 0
-1171 -1170 -1168 0
1171 -1170 1168 0
1171 1170 -1168 0
-1172 1125 0
-1172 1161 0
1172 -1125 -1161 0
-1173 1125 1161 0
-1173 -1125 -1161 0
1173 -1125 1161 0
1173 1125 -1161 0
-1174 1168 0
-1174 1173 0
1174 -1168 -1173 0
-1175 -1172 0
-1175 -1174 0
1175 1172 1174 0
-1176 1131 1162 0
-1176 -1131 -1162 0
1176 -1131 1162 0
1176 1131 -1162 0
-1177 1176 -1175 0
-1177 -1176 1175 0
1177 -1176 -1175 0
1177 1176 1175 0
-1178 1131 0
-1178 1162 0
1178 -1131 -1162 0
-1179 1131 1162 0
-1179 -1131 -1162 0
1179 -1131 1162 0
1179 1131 -1162 0
-1180 -1175 0
-1180 1179 0
1180 1175 -1179 0
-1181 -1178 0
-1181 -1180 0
1181 1178 1180 0
-1182 1137 1163 0
-1182 -1137 -1163 0
1182 -1137 1163 0
1182 1137 -1163 0
-1183 1182 -1181 0
-1183 -1182 1181 0
1183 -1182 -1181 0
1183 1182 1181 0
-1184 1137 0
-1184 1163 0
1184 -1137 -1163 0
-1185 1137 1163 0
-1185 -1137 -1163 0
1185 -1137 1163 0
1185 1137 -1163 0
-1186 -1181 0
-1186 1185 0
1186 1181 -1185 0
-1187 -1184 0
-1187 -1186 0
1187 1184 1186 0
-1188 1143 1164 0
-1188 -1143 -1164 0
1188 -1143 1164 0
1188 1143 -1164 0
-1189 1188 -1187 0
-1189 -1188 1187 0
1189 -1188 -1187 0
1189 1188 1187 0
-1190 1143 0
-1190 1164 0
1190 -1143 -1164 0
-1191 1143 1164 0
-1191 -1143 -1164 0
1191 -1143 1164 0
1191 1143 -1164 0
-1192 -1187 0
-1192 1191 0
1192 1187 -1191 0
-1193 -1190 0
-1193 -1192 0
1193 1190 1192 0
-1194 1149 1165 0
-1194 -1149 -1165 0
1194 -1149 1165 0
1194 1149 -1165 0
-1195 1194 -1193 0
-1195 -1194 1193 0
1195 -1194 -1193 0
1195 1194 1193 0
-1196 1149 0
-1196 1165 0
1196 -1149 -1165 0
-1197 1149 1165 0
-1197 -1149 -1165 0
1197 -1149 1165 0
1197 1149 -1165 0
-1198 -1193 0
-1198 1197 0
1198 1193 -1197 0
-1199 -1196 0
-1199 -1198 0
1199 1196 1198 0
-1200 1155 1166 0
-1200 -1155 -1166 0
1200 -1155 1166 0
1200 1155 -1166 0
-1201 1200 -1199 0
-1201 -1200 1199 0
1201 -1200 -1199 0
1201 1200 1199 0
-1202 1155 0
-1202 1166 0
1202 -1155 -1166 0
-1203 1155 1166 0
-1203 -1155 -1166 0
1203 -1155 1166 0
1203 1155 -1166 0
-1204 -1199 0
-1204 1203 0
1204 1199 -1203 0
-1205 -1202 0
-1205 -1204 0
1205 1202 1204 0
-1206 2 0
-1206 36 0
1206 -2 -36 0
-1207 3 0
-1207 36 0
1207 -3 -36 0
-1208 4 0
-1208 36 0
1208 -4 -36 0
-1209 5 0
-1209 36 0
1209 -5 -36 0
-1210 6 0
-1210 36 0
1210 -6 -36 0
-1211 7 0
-1211 36 0
1211 -7 -36 0
-1212 1171 1206 0
-1212 -1171 -1206 0
1212 -1171 1206 0
1212 1171 -1206 0
-1213 1171 0
-1213 1206 0
1213 -1171 -1206 0
-1214 1171 1206 0
-1214 -1171 -1206 0
1214 -1171 1206 0
1214 1171 -1206 0
-1215 1177 1207 0
-1215 -1177 -1207 0
1215 -1177 1207 0
1215 1177 -1207 0
-1216 1215 1213 0
-1216 -1215 -1213 0
1216 -1215 1213 0
1216 1215 -1213 0
-1217 1177 0
-1217 1207 0
1217 -1177 -1207 0
-1218 1177 1207 0
-1218 -1177 -1207 0
1218 -1177 1207 0
1218 1177 -1207 0
-1219 1213 0
-1219 1218 0
1219 -1213 -1218 0
-1220 -1217 0
-1220 -1219 0
1220 1217 1219 0
-1221 1183 1208 0
-1221 -1183 -1208 0
1221 -1183 1208 0
1221 1183 -1208 0
-1222 1221 -1220 0
-1222 -1221 1220 0
1222 -1221 -1220 0
1222 1221 1220 0
-1223 1183 0
-1223 1208 0
1223 -1183 -1208 0
-1224 1183 1208 0
-1224 -1183 -1208 0
1224 -1183 1208 0
1224 1183 -1208 0
-1225 -1220 0
-1225 1224 0
1225 1220 -1224 0
-1226 -1223 0
-1226 -1225 0
1226 1223 1225 0
-1227 1189 1209 0
-1227 -1189 -1209 0
1227 -1189 1209 0
1227 1189 -1209 0
-1228 1227 -1226 0
-1228 -1227 1226 0
1228 -1227 -1226 0
1228 1227 1226 0
-1229 1189 0
-1229 1209 0
1229 -1189 -1209 0
-1230 1189 1209 0
-1230 -1189 -1209 0
1230 -1189 1209 0
1230 1189 -1209 0
-1231 -1226 0
-1231 1230 0
1231 1226 -1230 0
-1232 -1229 0
-1232 -1231 0
1232 1229 1231 0
-1233 1195 1210 0
-1233 -1195 -1210 0
1233 -1195 1210 0
1233 1195 -1210 0
-1234 1233 -1232 0
-1234 -1233 1232 0
1234 -1233 -1232 0
1234 1233 1232 0
-1235 1195 0
-1235 1210 0
1235 -1195 -1210 0
-1236 1195 1210 0
-1236 -1195 -1210 0
1236 -1195 1210 0
1236 1195 -1210 0
-1237 -1232 0
-1237 1236 0
1237 1232 -1236 0
-1238 -1235 0
-1238 -1237 0
1238 1235 1237 0
-1239 1201 1211 0
-1239 -1201 -1211 0
1239 -1201 1211 0
1239 1201 -1211 0
-1240 1239 -1238 0
-1240 -1239 1238 0
1240 -1239 -1238 0
1240 1239 1238 0
-1241 1201 0
-1241 1211 0
1241 -1201 -1211 0
-1242 1201 1211 0
-1242 -1201 -1211 0
1242 -1201 1211 0
1242 1201 -1211 0
-1243 -1238 0
-1243 1242 0
1243 1238 -1242 0
-1244 -1241 0
-1244 -1243 0
1244 1241 1243 0
-1245 2 0
-1245 37 0
1245 -2 -37 0
-1246 3 0
-1246 37 0
1246 -3 -37 0
-1247 4 0
-1247 37 0
1247 -4 -37 0
-1248 5 0
-1248 37 0
1248 -5 -37 0
-1249 6 0
-1249 37 0
1249 -6 -37 0
-1250 1216 1245 0
-1250 -1216 -1245 0
1250 -1216 1245 0
1250 1216 -1245 0
-1251 1216 0
-1251 1245 0
1251 -1216 -1245 0
-1252 1216 1245 0
-1252 -1216 -1245 0
1252 -1216 1245 0
1252 1216 -1245 0
-1253 1222 1246 0
-1253 -1222 -1246 0
1253 -1222 1246 0
1253 1222 -1246 0
-1254 1253 1251 0
-1254 -1253 -1251 0
1254 -1253 1251 0
1254 1253 -1251 0
-1255 1222 0
-1255 1246 0
1255 -1222 -1246 0
-1256 1222 1246 0
-1256 -1222 -1246 0
1256 -1222 1246 0
1256 1222 -1246 0
-1257 1251 0
-1257 1256 0
1257 -1251 -1256 0
-1258 -1255 0
-1258 -1257 0
1258 1255 1257 0
-1259 1228 1247 0
-1259 -1228 -1247 0
1259 -1228 1247 0
1259 1228 -1247 0
-1260 1259 -1258 0
-1260 -1259 1258 0
1260 -1259 -1258 0
1260 1259 1258 0
-1261 1228 0
-1261 1247 0
1261 -1228 -1247 0
-1262 1228 1247 0
-1262 -1228 -1247 0
1262 -1228 1247 0
1262 1228 -1247 0
-1263 -1258 0
-1263 1262 0
1263 1258 -1262 0
-1264 -1261 0
-1264 -1263 0
1264 1261 1263 0
-1265 1234 1248 0
-1265 -1234 -1248 0
1265 -1234 1248 0
1265 1234 -1248 0
-1266 1265 -1264 0
-1266 -1265 1264 0
1266 -1265 -1264 0
1266 1265 1264 0
-1267 1234 0
-1267 1248 0
1267 -1234 -1248 0
-1268 1234 1248 0
-1268 -1234 -1248 0
1268 -1234 1248 0
1268 1234 -1248 0
-1269 -1264 0
-1269 1268 0
1269 1264 -1268 0
-1270 -1267 0
-1270 -1269 0
1270 1267 1269 0
-1271 1240 1249 0
-1271 -1240 -1249 0
1271 -1240 1249 0
1271 1240 -1249 0
-1272 1271 -1270 0
-1272 -1271 1270 0
1272 -1271 -1270 0
1272 1271 1270 0
-1273 1240 0
-1273 1249 0
1273 -1240 -1249 0
-1274 1240 1249 0
-1274 -1240 -1249 0
1274 -1240 1249 0
1274 1240 -1249 0
-1275 -1270 0
-1275 1274 0
1275 1270 -1274 0
-1276 -1273 0
-1276 -1275 0
1276 1273 1275 0
-1277 2 0
-1277 38 0
1277 -2 -38 0
-1278 3 0
-1278 38 0
1278 -3 -38 0
-1279 4 0
-1279 38 0
1279 -4 -38 0
-1280 5 0
-1280 38 0
1280 -5 -38 0
-1281 1254 1277 0
-1281 -1254 -1277 0
1281 -1254 1277 0
1281 1254 -1277 0
-1282 1254 0
-1282 1277 0
1282 -1254 -1277 0
-1283 1254 1277 0
-1283 -1254 -1277 0
1283 -1254 1277 0
1283 1254 -1277 0
-1284 1260 1278 0
-1284 -1260 -1278 0
1284 -1260 1278 0
1284 1260 -1278 0
-1285 1284 1282 0
-1285 -1284 -1282 0
1285 -1284 1282 0
1285 1284 -1282 0
-1286 1260 0
-1286 1278 0
1286 -1260 -1278 0
-1287 1260 1278 0
-1287 -1260 -1278 0
1287 -1260 1278 0
1287 1260 -1278 0
-1288 1282 0
-1288 1287 0
1288 -1282 -1287 0
-1289 -1286 0
-1289 -1288 0
1289 1286 1288 0
-1290 1266 1279 0
-1290 -1266 -1279 0
1290 -1266 1279 0
1290 1266 -1279 0
-1291 1290 -1289 0
-1291 -1290 1289 0
1291 -1290 -1289 0
1291 1290 1289 0
-1292 1266 0
-1292 1279 0
1292 -1266 -1279 0
-1293 1266 1279 0
-1293 -1266 -1279 0
1293 -1266 1279 0
1293 1266 -1279 0
-1294 -1289 0
-1294 1293 0
1294 1289 -1293 0
-1295 -1292 0
-1295 -1294 0
1295 1292 1294 0
-1296 1272 1280 0
-1296 -1272 -1280 0
1296 -1272 1280 0
1296 1272 -1280 0
-1297 1296 -1295 0
-1297 -1296 1295 0
1297 -1296 -1295 0
1297 1296 1295 0
-1298 1272 0
-1298 1280 0
1298 -1272 -1280 0
-1299 1272 1280 0
-1299 -1272 -1280 0
1299 -1272 1280 0
1299 1272 -1280 0
-1300 -1295 0
-1300 1299 0
1300 1295 -1299 0
-1301 -1298 0
-1301 -1300 0
1301 1298 1300 0
-1302 2 0
-1302 39 0
1302 -2 -39 0
-1303 3 0
-1303 39 0
1303 -3 -39 0
-1304 4 0
-1304 39 0
1304 -4 -39 0
-1305 1285 1302 0
-1305 -1285 -1302 0
1305 -1285 1302 0
1305 1285 -1302 0
-1306 1285 0
-1306 1302 0
1306 -1285 -1302 0
-1307 1285 1302 0
-1307 -1285 -1302 0
1307 -1285 1302 0
1307 1285 -1302 0
-1308 1291 1303 0
-1308 -1291 -1303 0
1308 -1291 1303 0
1308 1291 -1303 0
-1309 1308 1306 0
-1309 -1308 -1306 0
1309 -1308 1306 0
1309 1308 -1306 0
-1310 1291 0
-1310 1303 0
1310 -1291 -1303 0
-1311 1291 1303 0
-1311 -1291 -1303 0
1311 -1291 1303 0
1311 1291 -1303 0
-1312 1306 0
-1312 1311 0
1312 -1306 -1311 0
-1313 -1310 0
-1313 -1312 0
1313 1310 1312 0
-1314 1297 1304 0
-1314 -1297 -1304 0
1314 -1297 1304 0
1314 1297 -1304 0
-1315 1314 -1313 0
-1315 -1314 1313 0
1315 -1314 -1313 0
1315 1314 1313 0
-1316 1297 0
-1316 1304 0
1316 -1297 -1304 0
-1317 1297 1304 0
-1317 -1297 -1304 0
1317 -1297 1304 0
1317 1297 -1304 0
-1318 -1313 0
-1318 1317 0
1318 1313 -1317 0
-1319 -1316 0
-1319 -1318 0
1319 1316 1318 0
-1320 2 0
-1320 40 0
1320 -2 -40 0
-1321 3 0
-1321 40 0
1321 -3 -40 0
-1322 1309 1320 0
-1322 -1309 -1320 0
1322 -1309 1320 0
1322 1309 -1320 0
-1323 1309 0
-1323 1320 0
1323 -1309 -1320 0
-1324 1309 1320 0
-1324 -1309 -1320 0
1324 -1309 1320 0
1324 1309 -1320 0
-1325 1315 1321 0
-1325 -1315 -1321 0
1325 -1315 1321 0
1325 1315 -1321 0
-1326 1325 1323 0
-1326 -1325 -1323 0
1326 -1325 1323 0
1326 1325 -1323 0
-1327 1315 0
-1327 1321 0
1327 -1315 -1321 0
-1328 1315 1321 0
-1328 -1315 -1321 0
1328 -1315 1321 0
1328 1315 -1321 0
-1329 1323 0
-1329 1328 0
1329 -1323 -1328 0
-1330 -1327 0
-1330 -1329 0
1330 1327 1329 0
-1331 2 0
-1331 41 0
1331 -2 -41 0
-1332 1326 1331 0
-1332 -1326 -1331 0
1332 -1326 1331 0
1332 1326 -1331 0
-1333 1326 0
-1333 1331 0
1333 -1326 -1331 0
-1334 1326 1331 0
-1334 -1326 -1331 0
1334 -1326 1331 0
1334 1326 -1331 0
-42 1 0
42 -1 0
-81 1 0
81 -1 0
-210 1 0
210 -1 0
-332 1 0
332 -1 0
-447 -1 0
447 1 0
-555 -1 0
555 1 0
-656 -1 0
656 1 0
-750 -1 0
750 1 0
-837 -1 0
837 1 0
-917 -1 0
917 1 0
-990 -1 0
990 1 0
-1056 -1 0
1056 1 0
-1115 -1 0
1115 1 0
-1167 1 0
1167 -1 0
-1212 1 0
1212 -1 0
-1250 1 0
1250 -1 0
-1281 1 0
1281 -1 0
-1305 1 0
1305 -1 0
-1322 1 0
1322 -1 0
-1332 1 0
1332 -1 0
3 4 5 6 7 8 9 10 11 12 13 14 15 16 17 18 19 20 21 0
23 24 25 26 27 28 29 30 31 32 33 34 35 36 37 38 39 40 41 0
