p cnf 466 1537
1 0
-26 2 0
-26 14 0
26 -2 -14 0
-27 3 0
-27 14 0
27 -3 -14 0
-28 4 0
-28 14 0
28 -4 -14 0
-29 5 0
-29 14 0
29 -5 -14 0
-30 6 0
-30 14 0
30 -6 -14 0
-31 7 0
-31 14 0
31 -7 -14 0
-32 8 0
-32 14 0
32 -8 -14 0
-33 9 0
-33 14 0
33 -9 -14 0
-34 10 0
-34 14 0
34 -10 -14 0
-35 11 0
-35 14 0
35 -11 -14 0
-36 12 0
-36 14 0
36 -12 -14 0
-37 13 0
-37 14 0
37 -13 -14 0
-38 2 0
-38 15 0
38 -2 -15 0
-39 3 0
-39 15 0
39 -3 -15 0
-40 4 0
-40 15 0
40 -4 -15 0
-41 5 0
-41 15 0
41 -5 -15 0
-42 6 0
-42 15 0
42 -6 -15 0
-43 7 0
-43 15 0
43 -7 -15 0
-44 8 0
-44 15 0
44 -8 -15 0
-45 9 0
-45 15 0
45 -9 -15 0
-46 10 0
-46 15 0
46 -10 -15 0
-47 11 0
-47 15 0
47 -11 -15 0
-48 12 0
-48 15 0
48 -12 -15 0
-49 27 38 0
-49 -27 -38 0
49 -27 38 0
49 27 -38 0
-50 27 0
-50 38 0
50 -27 -38 0
-51 27 38 0
-51 -27 -38 0
51 -27 38 0
51 27 -38 0
-52 28 39 0
-52 -28 -39 0
52 -28 39 0
52 28 -39 0
-53 52 50 0
-53 -52 -50 0
53 -52 50 0
53 52 -50 0
-54 28 0
-54 39 0
54 -28 -39 0
-55 28 39 0
-55 -28 -39 0
55 -28 39 0
55 28 -39 0
-56 50 0
-56 55 0
56 -50 -55 0
-57 -54 0
-57 -56 0
57 54 56 0
-58 29 40 0
-58 -29 -40 0
58 -29 40 0
58 29 -40 0
-59 58 -57 0
-59 -58 57 0
59 -58 -57 0
59 58 57 0
-60 29 0
-60 40 0
60 -29 -40 0
-61 29 40 0
-61 -29 -40 0
61 -29 40 0
61 29 -40 0
-62 -57 0
-62 61 0
62 57 -61 0
-63 -60 0
-63 -62 0
63 60 62 0
-64 30 41 0
-64 -30 -41 0
64 -30 41 0
64 30 -41 0
-65 64 -63 0
-65 -64 63 0
65 -64 -63 0
65 64 63 0
-66 30 0
-66 41 0
66 -30 -41 0
-67 30 41 0
-67 -30 -41 0
67 -30 41 0
67 30 -41 0
-68 -63 0
-68 67 0
68 63 -67 0
-69 -66 0
-69 -68 0
69 66 68 0
-70 31 42 0
-70 -31 -42 0
70 -31 42 0
70 31 -42 0
-71 70 -69 0
-71 -70 69 0
71 -70 -69 0
71 70 69 0
-72 31 0
-72 42 0
72 -31 -42 0
-73 31 42 0
-73 -31 -42 0
73 -31 42 0
73 31 -42 0
-74 -69 0
-74 73 0
74 69 -73 0
-75 -72 0
-75 -74 0
75 72 74 0
-76 32 43 0
-76 -32 -43 0
76 -32 43 0
76 32 -43 0
-77 76 -75 0
-77 -76 75 0
77 -76 -75 0
77 76 75 0
-78 32 0
-78 43 0
78 -32 -43 0
-79 32 43 0
-79 -32 -43 0
79 -32 43 0
79 32 -43 0
-80 -75 0
-80 79 0
80 75 -79 0
-81 -78 0
-81 -80 0
81 78 80 0
-82 33 44 0
-82 -33 -44 0
82 -33 44 0
82 33 -44 0
-83 82 -81 0
-83 -82 81 0
83 -82 -81 0
83 82 81 0
-84 33 0
-84 44 0
84 -33 -44 0
-85 33 44 0
-85 -33 -44 0
85 -33 44 0
85 33 -44 0
-86 -81 0
-86 85 0
86 81 -85 0
-87 -84 0
-87 -86 0
87 84 86 0
-88 34 45 0
-88 -34 -45 0
88 -34 45 0
88 34 -45 0
-89 88 -87 0
-89 -88 87 0
89 -88 -87 0
89 88 87 0
-90 34 0
-90 45 0
90 -34 -45 0
-91 34 45 0
-91 -34 -45 0
91 -34 45 0
91 34 -45 0
-92 -87 0
-92 91 0
92 87 -91 0
-93 -90 0
-93 -92 0
93 90 92 0
-94 35 46 0
-94 -35 -46 0
94 -35 46 0
94 35 -46 0
-95 94 -93 0
-95 -94 93 0
95 -94 -93 0
95 94 93 0
-96 35 0
-96 46 0
96 -35 -46 0
-97 35 46 0
-97 -35 -46 0
97 -35 46 0
97 35 -46 0
-98 -93 0
-98 97 0
98 93 -97 0
-99 -96 0
-99 -98 0
99 96 98 0
-100 36 47 0
-100 -36 -47 0
100 -36 47 0
100 36 -47 0
-101 100 -99 0
-101 -100 99 0
101 -100 -99 0
101 100 99 0
-102 36 0
-102 47 0
102 -36 -47 0
-103 36 47 0
-103 -36 -47 0
103 -36 47 0
103 36 -47 0
-104 -99 0
-104 103 0
104 99 -103 0
-105 -102 0
-105 -104 0
105 102 104 0
-106 37 48 0
-106 -37 -48 0
106 -37 48 0
106 37 -48 0
-107 106 -105 0
-107 -106 105 0
107 -106 -105 0
107 106 105 0
-108 37 0
-108 48 0
108 -37 -48 0
-109 37 48 0
-109 -37 -48 0
109 -37 48 0
109 37 -48 0
-110 -105 0
-110 109 0
110 105 -109 0
-111 -108 0
-111 -110 0
111 108 110 0
-112 2 0
-112 16 0
112 -2 -16 0
-113 3 0
-113 16 0
113 -3 -16 0
-114 4 0
-114 16 0
114 -4 -16 0
-115 5 0
-115 16 0
115 -5 -16 0
-116 6 0
-116 16 0
116 -6 -16 0
-117 7 0
-117 16 0
117 -7 -16 0
-118 8 0
-118 16 0
118 -8 -16 0
-119 9 0
-119 16 0
119 -9 -16 0
-120 10 0
-120 16 0
120 -10 -16 0
-121 11 0
-121 16 0
121 -11 -16 0
-122 53 112 0
-122 -53 -112 0
122 -53 112 0
122 53 -112 0
-123 53 0
-123 112 0
123 -53 -112 0
-124 53 112 0
-124 -53 -112 0
124 -53 112 0
124 53 -112 0
-125 59 113 0
-125 -59 -113 0
125 -59 113 0
125 59 -113 0
-126 125 123 0
-126 -125 -123 0
126 -125 123 0
126 125 -123 0
-127 59 0
-127 113 0
127 -59 -113 0
-128 59 113 0
-128 -59 -113 0
128 -59 113 0
128 59 -113 0
-129 123 0
-129 128 0
129 -123 -128 0
-130 -127 0
-130 -129 0
130 127 129 0
-131 65 114 0
-131 -65 -114 0
131 -65 114 0
131 65 -114 0
-132 131 -130 0
-132 -131 130 0
132 -131 -130 0
132 131 130 0
-133 65 0
-133 114 0
133 -65 -114 0
-134 65 114 0
-134 -65 -114 0
134 -65 114 0
134 65 -114 0
-135 -130 0
-135 134 0
135 130 -134 0
-136 -133 0
-136 -135 0
136 133 135 0
-137 71 115 0
-137 -71 -115 0
137 -71 115 0
137 71 -115 0
-138 137 -136 0
-138 -137 136 0
138 -137 -136 0
138 137 136 0
-139 71 0
-139 115 0
139 -71 -115 0
-140 71 115 0
-140 -71 -115 0
140 -71 115 0
140 71 -115 0
-141 -136 0
-141 140 0
141 136 -140 0
-142 -139 0
-142 -141 0
142 139 141 0
-143 77 116 0
-143 -77 -116 0
143 -77 116 0
143 77 -116 0
-144 143 -142 0
-144 -143 142 0
144 -143 -142 0
144 143 142 0
-145 77 0
-145 116 0
145 -77 -116 0
-146 77 116 0
-146 -77 -116 0
146 -77 116 0
146 77 -116 0
-147 -142 0
-147 146 0
147 142 -146 0
-148 -145 0
-148 -147 0
148 145 147 0
-149 83 117 0
-149 -83 -117 0
149 -83 117 0
149 83 -117 0
-150 149 -148 0
-150 -149 148 0
150 -149 -148 0
150 149 148 0
-151 83 0
-151 117 0
151 -83 -117 0
-152 83 117 0
-152 -83 -117 0
152 -83 117 0
152 83 -117 0
-153 -148 0
-153 152 0
153 148 -152 0
-154 -151 0
-154 -153 0
154 151 153 0
-155 89 118 0
-155 -89 -118 0
155 -89 118 0
155 89 -118 0
-156 155 -154 0
-156 -155 154 0
156 -155 -154 0
156 155 154 0
-157 89 0
-157 118 0
157 -89 -118 0
-158 89 118 0
-158 -89 -118 0
158 -89 118 0
158 89 -118 0
-159 -154 0
-159 158 0
159 154 -158 0
-160 -157 0
-160 -159 0
160 157 159 0
-161 95 119 0
-161 -95 -119 0
161 -95 119 0
161 95 -119 0
-162 161 -160 0
-162 -161 160 0
162 -161 -160 0
162 161 160 0
-163 95 0
-163 119 0
163 -95 -119 0
-164 95 119 0
-164 -95 -119 0
164 -95 119 0
164 95 -119 0
-165 -160 0
-165 164 0
165 160 -164 0
-166 -163 0
-166 -165 0
166 163 165 0
-167 101 120 0
-167 -101 -120 0
167 -101 120 0
167 101 -120 0
-168 167 -166 0
-168 -167 166 0
168 -167 -166 0
168 167 166 0
-169 101 0
-169 120 0
169 -101 -120 0
-170 101 120 0
-170 -101 -120 0
170 -101 120 0
170 101 -120 0
-171 -166 0
-171 170 0
171 166 -170 0
-172 -169 0
-172 -171 0
172 169 171 0
-173 107 121 0
-173 -107 -121 0
173 -107 121 0
173 107 -121 0
-174 173 -172 0
-174 -173 172 0
174 -173 -172 0
174 173 172 0
-175 107 0
-175 121 0
175 -107 -121 0
-176 107 121 0
-176 -107 -121 0
176 -107 121 0
176 107 -121 0
-177 -172 0
-177 176 0
177 172 -176 0
-178 -175 0
-178 -177 0
178 175 177 0
-179 2 0
-179 17 0
179 -2 -17 0
-180 3 0
-180 17 0
180 -3 -17 0
-181 4 0
-181 17 0
181 -4 -17 0
-182 5 0
-182 17 0
182 -5 -17 0
-183 6 0
-183 17 0
183 -6 -17 0
-184 7 0
-184 17 0
184 -7 -17 0
-185 8 0
-185 17 0
185 -8 -17 0
-186 9 0
-186 17 0
186 -9 -17 0
-187 10 0
-187 17 0
187 -10 -17 0
-188 126 179 0
-188 -126 -179 0
188 -126 179 0
188 126 -179 0
-189 126 0
-189 179 0
189 -126 -179 0
-190 126 179 0
-190 -126 -179 0
190 -126 179 0
190 126 -179 0
-191 132 180 0
-191 -132 -180 0
191 -132 180 0
191 132 -180 0
-192 191 189 0
-192 -191 -189 0
192 -191 189 0
192 191 -189 0
-193 132 0
-193 180 0
193 -132 -180 0
-194 132 180 0
-194 -132 -180 0
194 -132 180 0
194 132 -180 0
-195 189 0
-195 194 0
195 -189 -194 0
-196 -193 0
-196 -195 0
196 193 195 0
-197 138 181 0
-197 -138 -181 0
197 -138 181 0
197 138 -181 0
-198 197 -196 0
-198 -197 196 0
198 -197 -196 0
198 197 196 0
-199 138 0
-199 181 0
199 -138 -181 0
-200 138 181 0
-200 -138 -181 0
200 -138 181 0
200 138 -181 0
-201 -196 0
-201 200 0
201 196 -200 0
-202 -199 0
-202 -201 0
202 199 201 0
-203 144 182 0
-203 -144 -182 0
203 -144 182 0
203 144 -182 0
-204 203 -202 0
-204 -203 202 0
204 -203 -202 0
204 203 202 0
-205 144 0
-205 182 0
205 -144 -182 0
-206 144 182 0
-206 -144 -182 0
206 -144 182 0
206 144 -182 0
-207 -202 0
-207 206 0
207 202 -206 0
-208 -205 0
-208 -207 0
208 205 207 0
-209 150 183 0
-209 -150 -183 0
209 -150 183 0
209 150 -183 0
-210 209 -208 0
-210 -209 208 0
210 -209 -208 0
210 209 208 0
-211 150 0
-211 183 0
211 -150 -183 0
-212 150 183 0
-212 -150 -183 0
212 -150 183 0
212 150 -183 0
-213 -208 0
-213 212 0
213 208 -212 0
-214 -211 0
-214 -213 0
214 211 213 0
-215 156 184 0
-215 -156 -184 0
215 -156 184 0
215 156 -184 0
-216 215 -214 0
-216 -215 214 0
216 -215 -214 0
216 215 214 0
-217 156 0
-217 184 0
217 -156 -184 0
-218 156 184 0
-218 -156 -184 0
218 -156 184 0
218 156 -184 0
-219 -214 0
-219 218 0
219 214 -218 0
-220 -217 0
-220 -219 0
220 217 219 0
-221 162 185 0
-221 -162 -185 0
221 -162 185 0
221 162 -185 0
-222 221 -220 0
-222 -221 220 0
222 -221 -220 0
222 221 220 0
-223 162 0
-223 185 0
223 -162 -185 0
-224 162 185 0
-224 -162 -185 0
224 -162 185 0
224 162 -185 0
-225 -220 0
-225 224 0
225 220 -224 0
-226 -223 0
-226 -225 0
226 223 225 0
-227 168 186 0
-227 -168 -186 0
227 -168 186 0
227 168 -186 0
-228 227 -226 0
-228 -227 226 0
228 -227 -226 0
228 227 226 0
-229 168 0
-229 186 0
229 -168 -186 0
-230 168 186 0
-230 -168 -186 0
230 -168 186 0
230 168 -186 0
-231 -226 0
-231 230 0
231 226 -230 0
-232 -229 0
-232 -231 0
232 229 231 0
-233 174 187 0
-233 -174 -187 0
233 -174 187 0
233 174 -187 0
-234 233 -232 0
-234 -233 232 0
234 -233 -232 0
234 233 232 0
-235 174 0
-235 187 0
235 -174 -187 0
-236 174 187 0
-236 -174 -187 0
236 -174 187 0
236 174 -187 0
-237 -232 0
-237 236 0
237 232 -236 0
-238 -235 0
-238 -237 0
238 235 237 0
-239 2 0
-239 18 0
239 -2 -18 0
-240 3 0
-240 18 0
240 -3 -18 0
-241 4 0
-241 18 0
241 -4 -18 0
-242 5 0
-242 18 0
242 -5 -18 0
-243 6 0
-243 18 0
243 -6 -18 0
-244 7 0
-244 18 0
244 -7 -18 0
-245 8 0
-245 18 0
245 -8 -18 0
-246 9 0
-246 18 0
246 -9 -18 0
-247 192 239 0
-247 -192 -239 0
247 -192 239 0
247 192 -239 0
-248 192 0
-248 239 0
248 -192 -239 0
-249 192 239 0
-249 -192 -239 0
249 -192 239 0
249 192 -239 0
-250 198 240 0
-250 -198 -240 0
250 -198 240 0
250 198 -240 0
-251 250 248 0
-251 -250 -248 0
251 -250 248 0
251 250 -248 0
-252 198 0
-252 240 0
252 -198 -240 0
-253 198 240 0
-253 -198 -240 0
253 -198 240 0
253 198 -240 0
-254 248 0
-254 253 0
254 -248 -253 0
-255 -252 0
-255 -254 0
255 252 254 0
-256 204 241 0
-256 -204 -241 0
256 -204 241 0
256 204 -241 0
-257 256 -255 0
-257 -256 255 0
257 -256 -255 0
257 256 255 0
-258 204 0
-258 241 0
258 -204 -241 0
-259 204 241 0
-259 -204 -241 0
259 -204 241 0
259 204 -241 0
-260 -255 0
-260 259 0
260 255 -259 0
-261 -258 0
-261 -260 0
261 258 260 0
-262 210 242 0
-262 -210 -242 0
262 -210 242 0
262 210 -242 0
-263 262 -261 0
-263 -262 261 0
263 -262 -261 0
263 262 261 0
-264 210 0
-264 242 0
264 -210 -242 0
-265 210 242 0
-265 -210 -242 0
265 -210 242 0
265 210 -242 0
-266 -261 0
-266 265 0
266 261 -265 0
-267 -264 0
-267 -266 0
267 264 266 0
-268 216 243 0
-268 -216 -243 0
268 -216 243 0
268 216 -243 0
-269 268 -267 0
-269 -268 267 0
269 -268 -267 0
269 268 267 0
-270 216 0
-270 243 0
270 -216 -243 0
-271 216 243 0
-271 -216 -243 0
271 -216 243 0
271 216 -243 0
-272 -267 0
-272 271 0
272 267 -271 0
-273 -270 0
-273 -272 0
273 270 272 0
-274 222 244 0
-274 -222 -244 0
274 -222 244 0
274 222 -244 0
-275 274 -273 0
-275 -274 273 0
275 -274 -273 0
275 274 273 0
-276 222 0
-276 244 0
276 -222 -244 0
-277 222 244 0
-277 -222 -244 0
277 -222 244 0
277 222 -244 0
-278 -273 0
-278 277 0
278 273 -277 0
-279 -276 0
-279 -278 0
279 276 278 0
-280 228 245 0
-280 -228 -245 0
280 -228 245 0
280 228 -245 0
-281 280 -279 0
-281 -280 279 0
281 -280 -279 0
281 280 279 0
-282 228 0
-282 245 0
282 -228 -245 0
-283 228 245 0
-283 -228 -245 0
283 -228 245 0
283 228 -245 0
-284 -279 0
-284 283 0
284 279 -283 0
-285 -282 0
-285 -284 0
285 282 284 0
-286 234 246 0
-286 -234 -246 0
286 -234 246 0
286 234 -246 0
-287 286 -285 0
-287 -286 285 0
287 -286 -285 0
287 286 285 0
-288 234 0
-288 246 0
288 -234 -246 0
-289 234 246 0
-289 -234 -246 0
289 -234 246 0
289 234 -246 0
-290 -285 0
-290 289 0
290 285 -289 0
-291 -288 0
-291 -290 0
291 288 290 0
-292 2 0
-292 19 0
292 -2 -19 0
-293 3 0
-293 19 0
293 -3 -19 0
-294 4 0
-294 19 0
294 -4 -19 0
-295 5 0
-295 19 0
295 -5 -19 0
-296 6 0
-296 19 0
296 -6 -19 0
-297 7 0
-297 19 0
297 -7 -19 0
-298 8 0
-298 19 0
298 -8 -19 0
-299 251 292 0
-299 -251 -292 0
299 -251 292 0
299 251 -292 0
-300 251 0
-300 292 0
300 -251 -292 0
-301 251 292 0
-301 -251 -292 0
301 -251 292 0
301 251 -292 0
-302 257 293 0
-302 -257 -293 0
302 -257 293 0
302 257 -293 0
-303 302 300 0
-303 -302 -300 0
303 -302 300 0
303 302 -300 0
-304 257 0
-304 293 0
304 -257 -293 0
-305 257 293 0
-305 -257 -293 0
305 -257 293 0
305 257 -293 0
-306 300 0
-306 305 0
306 -300 -305 0
-307 -304 0
-307 -306 0
307 304 306 0
-308 263 294 0
-308 -263 -294 0
308 -263 294 0
308 263 -294 0
-309 308 -307 0
-309 -308 307 0
309 -308 -307 0
309 308 307 0
-310 263 0
-310 294 0
310 -263 -294 0
-311 263 294 0
-311 -263 -294 0
311 -263 294 0
311 263 -294 0
-312 -307 0
-312 311 0
312 307 -311 0
-313 -310 0
-313 -312 0
313 310 312 0
-314 269 295 0
-314 -269 -295 0
314 -269 295 0
314 269 -295 0
-315 314 -313 0
-315 -314 313 0
315 -314 -313 0
315 314 313 0
-316 269 0
-316 295 0
316 -269 -295 0
-317 269 295 0
-317 -269 -295 0
317 -269 295 0
317 269 -295 0
-318 -313 0
-318 317 0
318 313 -317 0
-319 -316 0
-319 -318 0
319 316 318 0
-320 275 296 0
-320 -275 -296 0
320 -275 296 0
320 275 -296 0
-321 320 -319 0
-321 -320 319 0
321 -320 -319 0
321 320 319 0
-322 275 0
-322 296 0
322 -275 -296 0
-323 275 296 0
-323 -275 -296 0
323 -275 296 0
323 275 -296 0
-324 -319 0
-324 323 0
324 319 -323 0
-325 -322 0
-325 -324 0
325 322 324 0
-326 281 297 0
-326 -281 -297 0
326 -281 297 0
326 281 -297 0
-327 326 -325 0
-327 -326 325 0
327 -326 -325 0
327 326 325 0
-328 281 0
-328 297 0
328 -281 -297 0
-329 281 297 0
-329 -281 -297 0
329 -281 297 0
329 281 -297 0
-330 -325 0
-330 329 0
330 325 -329 0
-331 -328 0
-331 -330 0
331 328 330 0
-332 287 298 0
-332 -287 -298 0
332 -287 298 0
332 287 -298 0
-333 332 -331 0
-333 -332 331 0
333 -332 -331 0
333 332 331 0
-334 287 0
-334 298 0
334 -287 -298 0
-335 287 298 0
-335 -287 -298 0
335 -287 298 0
335 287 -298 0
-336 -331 0
-336 335 0
336 331 -335 0
-337 -334 0
-337 -336 0
337 334 336 0
-338 2 0
-338 20 0
338 -2 -20 0
-339 3 0
-339 20 0
339 -3 -20 0
-340 4 0
-340 20 0
340 -4 -20 0
-341 5 0
-341 20 0
341 -5 -20 0
-342 6 0
-342 20 0
342 -6 -20 0
-343 7 0
-343 20 0
343 -7 -20 0
-344 303 338 0
-344 -303 -338 0
344 -303 338 0
344 303 -338 0
-345 303 0
-345 338 0
345 -303 -338 0
-346 303 338 0
-346 -303 -338 0
346 -303 338 0
346 303 -338 0
-347 309 339 0
-347 -309 -339 0
347 -309 339 0
347 309 -339 0
-348 347 345 0
-348 -347 -345 0
348 -347 345 0
348 347 -345 0
-349 309 0
-349 339 0
349 -309 -339 0
-350 309 339 0
-350 -309 -339 0
350 -309 339 0
350 309 -339 0
-351 345 0
-351 350 0
351 -345 -350 0
-352 -349 0
-352 -351 0
352 349 351 0
-353 315 340 0
-353 -315 -340 0
353 -315 340 0
353 315 -340 0
-354 353 -352 0
-354 -353 352 0
354 -353 -352 0
354 353 352 0
-355 315 0
-355 340 0
355 -315 -340 0
-356 315 340 0
-356 -315 -340 0
356 -315 340 0
356 315 -340 0
-357 -352 0
-357 356 0
357 352 -356 0
-358 -355 0
-358 -357 0
358 355 357 0
-359 321 341 0
-359 -321 -341 0
359 -321 341 0
359 321 -341 0
-360 359 -358 0
-360 -359 358 0
360 -359 -358 0
360 359 358 0
-361 321 0
-361 341 0
361 -321 -341 0
-362 321 341 0
-362 -321 -341 0
362 -321 341 0
362 321 -341 0
-363 -358 0
-363 362 0
363 358 -362 0
-364 -361 0
-364 -363 0
364 361 363 0
-365 327 342 0
-365 -327 -342 0
365 -327 342 0
365 327 -342 0
-366 365 -364 0
-366 -365 364 0
366 -365 -364 0
366 365 364 0
-367 327 0
-367 342 0
367 -327 -342 0
-368 327 342 0
-368 -327 -342 0
368 -327 342 0
368 327 -342 0
-369 -364 0
-369 368 0
369 364 -368 0
-370 -367 0
-370 -369 0
370 367 369 0
-371 333 343 0
-371 -333 -343 0
371 -333 343 0
371 333 -343 0
-372 371 -370 0
-372 -371 370 0
372 -371 -370 0
372 371 370 0
-373 333 0
-373 343 0
373 -333 -343 0
-374 333 343 0
-374 -333 -343 0
374 -333 343 0
374 333 -343 0
-375 -370 0
-375 374 0
375 370 -374 0
-376 -373 0
-376 -375 0
376 373 375 0
-377 2 0
-377 21 0
377 -2 -21 0
-378 3 0
-378 21 0
378 -3 -21 0
-379 4 0
-379 21 0
379 -4 -21 0
-380 5 0
-380 21 0
380 -5 -21 0
-381 6 0
-381 21 0
381 -6 -21 0
-382 348 377 0
-382 -348 -377 0
382 -348 377 0
382 348 -377 0
-383 348 0
-383 377 0
383 -348 -377 0
-384 348 377 0
-384 -348 -377 0
384 -348 377 0
384 348 -377 0
-385 354 378 0
-385 -354 -378 0
385 -354 378 0
385 354 -378 0
-386 385 383 0
-386 -385 -383 0
386 -385 383 0
386 385 -383 0
-387 354 0
-387 378 0
387 -354 -378 0
-388 354 378 0
-388 -354 -378 0
388 -354 378 0
388 354 -378 0
-389 383 0
-389 388 0
389 -383 -388 0
-390 -387 0
-390 -389 0
390 387 389 0
-391 360 379 0
-391 -360 -379 0
391 -360 379 0
391 360 -379 0
-392 391 -390 0
-392 -391 390 0
392 -391 -390 0
392 391 390 0
-393 360 0
-393 379 0
393 -360 -379 0
-394 360 379 0
-394 -360 -379 0
394 -360 379 0
394 360 -379 0
-395 -390 0
-395 394 0
395 390 -394 0
-396 -393 0
-396 -395 0
396 393 395 0
-397 366 380 0
-397 -366 -380 0
397 -366 380 0
397 366 -380 0
-398 397 -396 0
-398 -397 396 0
398 -397 -396 0
398 397 396 0
-399 366 0
-399 380 0
399 -366 -380 0
-400 366 380 0
-400 -366 -380 0
400 -366 380 0
400 366 -380 0
-401 -396 0
-401 400 0
401 396 -400 0
-402 -399 0
-402 -401 0
402 399 401 0
-403 372 381 0
-403 -372 -381 0
403 -372 381 0
403 372 -381 0
-404 403 -402 0
-404 -403 402 0
404 -403 -402 0
404 403 402 0
-405 372 0
-405 381 0
405 -372 -381 0
-406 372 381 0
-406 -372 -381 0
406 -372 381 0
406 372 -381 0
-407 -402 0
-407 406 0
407 402 -406 0
-408 -405 0
-408 -407 0
408 405 407 0
-409 2 0
-409 22 0
409 -2 -22 0
-410 3 0
-410 22 0
410 -3 -22 0
-411 4 0
-411 22 0
411 -4 -22 0
-412 5 0
-412 22 0
412 -5 -22 0
-413 386 409 0
-413 -386 -409 0
413 -386 409 0
413 386 -409 0
-414 386 0
-414 409 0
414 -386 -409 0
-415 386 409 0
-415 -386 -409 0
415 -386 409 0
415 386 -409 0
-416 392 410 0
-416 -392 -410 0
416 -392 410 0
416 392 -410 0
-417 416 414 0
-417 -416 -414 0
417 -416 414 0
417 416 -414 0
-418 392 0
-418 410 0
418 -392 -410 0
-419 392 410 0
-419 -392 -410 0
419 -392 410 0
419 392 -410 0
-420 414 0
-420 419 0
420 -414 -419 0
-421 -418 0
-421 -420 0
421 418 420 0
-422 398 411 0
-422 -398 -411 0
422 -398 411 0
422 398 -411 0
-423 422 -421 0
-423 -422 421 0
423 -422 -421 0
423 422 421 0
-424 398 0
-424 411 0
424 -398 -411 0
-425 398 411 0
-425 -398 -411 0
425 -398 411 0
425 398 -411 0
-426 -421 0
-426 425 0
426 421 -425 0
-427 -424 0
-427 -426 0
427 424 426 0
-428 404 412 0
-428 -404 -412 0
428 -404 412 0
428 404 -412 0
-429 428 -427 0
-429 -428 427 0
429 -428 -427 0
429 428 427 0
-430 404 0
-430 412 0
430 -404 -412 0
-431 404 412 0
-431 -404 -412 0
431 -404 412 0
431 404 -412 0
-432 -427 0
-432 431 0
432 427 -431 0
-433 -430 0
-433 -432 0
433 430 432 0
-434 2 0
-434 23 0
434 -2 -23 0
-435 3 0
-435 23 0
435 -3 -23 0
-436 4 0
-436 23 0
436 -4 -23 0
-437 417 434 0
-437 -417 -434 0
437 -417 434 0
437 417 -434 0
-438 417 0
-438 434 0
438 -417 -434 0
-439 417 434 0
-439 -417 -434 0
439 -417 434 0
439 417 -434 0
-440 423 435 0
-440 -423 -435 0
440 -423 435 0
440 423 -435 0
-441 440 438 0
-441 -440 -438 0
441 -440 438 0
441 440 -438 0
-442 423 0
-442 435 0
442 -423 -435 0
-443 423 435 0
-443 -423 -435 0
443 -423 435 0
443 423 -435 0
-444 438 0
-444 443 0
444 -438 -443 0
-445 -442 0
-445 -444 0
445 442 444 0
-446 429 436 0
-446 -429 -436 0
446 -429 436 0
446 429 -436 0
-447 446 -445 0
-447 -446 445 0
447 -446 -445 0
447 446 445 0
-448 429 0
-448 436 0
448 -429 -436 0
-449 429 436 0
-449 -429 -436 0
449 -429 436 0
449 429 -436 0
-450 -445 0
-450 449 0
450 445 -449 0
-451 -448 0
-451 -450 0
451 448 450 0
-452 2 0
-452 24 0
452 -2 -24 0
-453 3 0
-453 24 0
453 -3 -24 0
-454 441 452 0
-454 -441 -452 0
454 -441 452 0
454 441 -452 0
-455 441 0
-455 452 0
455 -441 -452 0
-456 441 452 0
-456 -441 -452 0
456 -441 452 0
456 441 -452 0
-457 447 453 0
-457 -447 -453 0
457 -447 453 0
457 447 -453 0
-458 457 455 0
-458 -457 -455 0
458 -457 455 0
458 457 -455 0
-459 447 0
-459 453 0
459 -447 -453 0
-460 447 453 0
-460 -447 -453 0
460 -447 453 0
460 447 -453 0
-461 455 0
-461 460 0
461 -455 -460 0
-462 -459 0
-462 -461 0
462 459 461 0
-463 2 0
-463 25 0
463 -2 -25 0
-464 458 463 0
-464 -458 -463 0
464 -458 463 0
464 458 -463 0
-465 458 0
-465 463 0
465 -458 -463 0
-466 458 463 0
-466 -458 -463 0
466 -458 463 0
466 458 -463 0
-26 1 0
26 -1 0
-49 1 0
49 -1 0
-122 1 0
122 -1 0
-188 -1 0
188 1 0
-247 1 0
247 -1 0
-299 1 0
299 -1 0
-344 1 0
344 -1 0
-382 1 0
382 -1 0
-413 1 0
413 -1 0
-437 1 0
437 -1 0
-454 -1 0
454 1 0
-464 1 0
464 -1 0
3 4 5 6 7 8 9 10 11 12 13 0
15 16 17 18 19 20 21 22 23 24 25 0
