p cnf 641 2127
1 0
-30 2 0
-30 16 0
30 -2 -16 0
-31 3 0
-31 16 0
31 -3 -16 0
-32 4 0
-32 16 0
32 -4 -16 0
-33 5 0
-33 16 0
33 -5 -16 0
-34 6 0
-34 16 0
34 -6 -16 0
-35 7 0
-35 16 0
35 -7 -16 0
-36 8 0
-36 16 0
36 -8 -16 0
-37 9 0
-37 16 0
37 -9 -16 0
-38 10 0
-38 16 0
38 -10 -16 0
-39 11 0
-39 16 0
39 -11 -16 0
-40 12 0
-40 16 0
40 -12 -16 0
-41 13 0
-41 16 0
41 -13 -16 0
-42 14 0
-42 16 0
42 -14 -16 0
-43 15 0
-43 16 0
43 -15 -16 0
-44 2 0
-44 17 0
44 -2 -17 0
-45 3 0
-45 17 0
45 -3 -17 0
-46 4 0
-46 17 0
46 -4 -17 0
-47 5 0
-47 17 0
47 -5 -17 0
-48 6 0
-48 17 0
48 -6 -17 0
-49 7 0
-49 17 0
49 -7 -17 0
-50 8 0
-50 17 0
50 -8 -17 0
-51 9 0
-51 17 0
51 -9 -17 0
-52 10 0
-52 17 0
52 -10 -17 0
-53 11 0
-53 17 0
53 -11 -17 0
-54 12 0
-54 17 0
54 -12 -17 0
-55 13 0
-55 17 0
55 -13 -17 0
-56 14 0
-56 17 0
56 -14 -17 0
-57 31 44 0
-57 -31 -44 0
57 -31 44 0
57 31 -44 0
-58 31 0
-58 44 0
58 -31 -44 0
-59 31 44 0
-59 -31 -44 0
59 -31 44 0
59 31 -44 0
-60 32 45 0
-60 -32 -45 0
60 -32 45 0
60 32 -45 0
-61 60 58 0
-61 -60 -58 0
61 -60 58 0
61 60 -58 0
-62 32 0
-62 45 0
62 -32 -45 0
-63 32 45 0
-63 -32 -45 0
63 -32 45 0
63 32 -45 0
-64 58 0
-64 63 0
64 -58 -63 0
-65 -62 0
-65 -64 0
65 62 64 0
-66 33 46 0
-66 -33 -46 0
66 -33 46 0
66 33 -46 0
-67 66 -65 0
-67 -66 65 0
67 -66 -65 0
67 66 65 0
-68 33 0
-68 46 0
68 -33 -46 0
-69 33 46 0
-69 -33 -46 0
69 -33 46 0
69 33 -46 0
-70 -65 0
-70 69 0
70 65 -69 0
-71 -68 0
-71 -70 0
71 68 70 0
-72 34 47 0
-72 -34 -47 0
72 -34 47 0
72 34 -47 0
-73 72 -71 0
-73 -72 71 0
73 -72 -71 0
73 72 71 0
-74 34 0
-74 47 0
74 -34 -47 0
-75 34 47 0
-75 -34 -47 0
75 -34 47 0
75 34 -47 0
-76 -71 0
-76 75 0
76 71 -75 0
-77 -74 0
-77 -76 0
77 74 76 0
-78 35 48 0
-78 -35 -48 0
78 -35 48 0
78 35 -48 0
-79 78 -77 0
-79 -78 77 0
79 -78 -77 0
79 78 77 0
-80 35 0
-80 48 0
80 -35 -48 0
-81 35 48 0
-81 -35 -48 0
81 -35 48 0
81 35 -48 0
-82 -77 0
-82 81 0
82 77 -81 0
-83 -80 0
-83 -82 0
83 80 82 0
-84 36 49 0
-84 -36 -49 0
84 -36 49 0
84 36 -49 0
-85 84 -83 0
-85 -84 83 0
85 -84 -83 0
85 84 83 0
-86 36 0
-86 49 0
86 -36 -49 0
-87 36 49 0
-87 -36 -49 0
87 -36 49 0
87 36 -49 0
-88 -83 0
-88 87 0
88 83 -87 0
-89 -86 0
-89 -88 0
89 86 88 0
-90 37 50 0
-90 -37 -50 0
90 -37 50 0
90 37 -50 0
-91 90 -89 0
-91 -90 89 0
91 -90 -89 0
91 90 89 0
-92 37 0
-92 50 0
92 -37 -50 0
-93 37 50 0
-93 -37 -50 0
93 -37 50 0
93 37 -50 0
-94 -89 0
-94 93 0
94 89 -93 0
-95 -92 0
-95 -94 0
95 92 94 0
-96 38 51 0
-96 -38 -51 0
96 -38 51 0
96 38 -51 0
-97 96 -95 0
-97 -96 95 0
97 -96 -95 0
97 96 95 0
-98 38 0
-98 51 0
98 -38 -51 0
-99 38 51 0
-99 -38 -51 0
99 -38 51 0
99 38 -51 0
-100 -95 0
-100 99 0
100 95 -99 0
-101 -98 0
-101 -100 0
101 98 100 0
-102 39 52 0
-102 -39 -52 0
102 -39 52 0
102 39 -52 0
-103 102 -101 0
-103 -102 101 0
103 -102 -101 0
103 102 101 0
-104 39 0
-104 52 0
104 -39 -52 0
-105 39 52 0
-105 -39 -52 0
105 -39 52 0
105 39 -52 0
-106 -101 0
-106 105 0
106 101 -105 0
-107 -104 0
-107 -106 0
107 104 106 0
-108 40 53 0
-108 -40 -53 0
108 -40 53 0
108 40 -53 0
-109 108 -107 0
-109 -108 107 0
109 -108 -107 0
109 108 107 0
-110 40 0
-110 53 0
110 -40 -53 0
-111 40 53 0
-111 -40 -53 0
111 -40 53 0
111 40 -53 0
-112 -107 0
-112 111 0
112 107 -111 0
-113 -110 0
-113 -112 0
113 110 112 0
-114 41 54 0
-114 -41 -54 0
114 -41 54 0
114 41 -54 0
-115 114 -113 0
-115 -114 113 0
115 -114 -113 0
115 114 113 0
-116 41 0
-116 54 0
116 -41 -54 0
-117 41 54 0
-117 -41 -54 0
117 -41 54 0
117 41 -54 0
-118 -113 0
-118 117 0
118 113 -117 0
-119 -116 0
-119 -118 0
119 116 118 0
-120 42 55 0
-120 -42 -55 0
120 -42 55 0
120 42 -55 0
-121 120 -119 0
-121 -120 119 0
121 -120 -119 0
121 120 119 0
-122 42 0
-122 55 0
122 -42 -55 0
-123 42 55 0
-123 -42 -55 0
123 -42 55 0
123 42 -55 0
-124 -119 0
-124 123 0
124 119 -123 0
-125 -122 0
-125 -124 0
125 122 124 0
-126 43 56 0
-126 -43 -56 0
126 -43 56 0
126 43 -56 0
-127 126 -125 0
-127 -126 125 0
127 -126 -125 0
127 126 125 0
-128 43 0
-128 56 0
128 -43 -56 0
-129 43 56 0
-129 -43 -56 0
129 -43 56 0
129 43 -56 0
-130 -125 0
-130 129 0
130 125 -129 0
-131 -128 0
-131 -130 0
131 128 130 0
-132 2 0
-132 18 0
132 -2 -18 0
-133 3 0
-133 18 0
133 -3 -18 0
-134 4 0
-134 18 0
134 -4 -18 0
-135 5 0
-135 18 0
135 -5 -18 0
-136 6 0
-136 18 0
136 -6 -18 0
-137 7 0
-137 18 0
137 -7 -18 0
-138 8 0
-138 18 0
138 -8 -18 0
-139 9 0
-139 18 0
139 -9 -18 0
-140 10 0
-140 18 0
140 -10 -18 0
-141 11 0
-141 18 0
141 -11 -18 0
-142 12 0
-142 18 0
142 -12 -18 0
-143 13 0
-143 18 0
143 -13 -18 0
-144 61 132 0
-144 -61 -132 0
144 -61 132 0
144 61 -132 0
-145 61 0
-145 132 0
145 -61 -132 0
-146 61 132 0
-146 -61 -132 0
146 -61 132 0
146 61 -132 0
-147 67 133 0
-147 -67 -133 0
147 -67 133 0
147 67 -133 0
-148 147 145 0
-148 -147 -145 0
148 -147 145 0
148 147 -145 0
-149 67 0
-149 133 0
149 -67 -133 0
-150 67 133 0
-150 -67 -133 0
150 -67 133 0
150 67 -133 0
-151 145 0
-151 150 0
151 -145 -150 0
-152 -149 0
-152 -151 0
152 149 151 0
-153 73 134 0
-153 -73 -134 0
153 -73 134 0
153 73 -134 0
-154 153 -152 0
-154 -153 152 0
154 -153 -152 0
154 153 152 0
-155 73 0
-155 134 0
155 -73 -134 0
-156 73 134 0
-156 -73 -134 0
156 -73 134 0
156 73 -134 0
-157 -152 0
-157 156 0
157 152 -156 0
-158 -155 0
-158 -157 0
158 155 157 0
-159 79 135 0
-159 -79 -135 0
159 -79 135 0
159 79 -135 0
-160 159 -158 0
-160 -159 158 0
160 -159 -158 0
160 159 158 0
-161 79 0
-161 135 0
161 -79 -135 0
-162 79 135 0
-162 -79 -135 0
162 -79 135 0
162 79 -135 0
-163 -158 0
-163 162 0
163 158 -162 0
-164 -161 0
-164 -163 0
164 161 163 0
-165 85 136 0
-165 -85 -136 0
165 -85 136 0
165 85 -136 0
-166 165 -164 0
-166 -165 164 0
166 -165 -164 0
166 165 164 0
-167 85 0
-167 136 0
167 -85 -136 0
-168 85 136 0
-168 -85 -136 0
168 -85 136 0
168 85 -136 0
-169 -164 0
-169 168 0
169 164 -168 0
-170 -167 0
-170 -169 0
170 167 169 0
-171 91 137 0
-171 -91 -137 0
171 -91 137 0
171 91 -137 0
-172 171 -170 0
-172 -171 170 0
172 -171 -170 0
172 171 170 0
-173 91 0
-173 137 0
173 -91 -137 0
-174 91 137 0
-174 -91 -137 0
174 -91 137 0
174 91 -137 0
-175 -170 0
-175 174 0
175 170 -174 0
-176 -173 0
-176 -175 0
176 173 175 0
-177 97 138 0
-177 -97 -138 0
177 -97 138 0
177 97 -138 0
-178 177 -176 0
-178 -177 176 0
178 -177 -176 0
178 177 176 0
-179 97 0
-179 138 0
179 -97 -138 0
-180 97 138 0
-180 -97 -138 0
180 -97 138 0
180 97 -138 0
-181 -176 0
-181 180 0
181 176 -180 0
-182 -179 0
-182 -181 0
182 179 181 0
-183 103 139 0
-183 -103 -139 0
183 -103 139 0
183 103 -139 0
-184 183 -182 0
-184 -183 182 0
184 -183 -182 0
184 183 182 0
-185 103 0
-185 139 0
185 -103 -139 0
-186 103 139 0
-186 -103 -139 0
186 -103 139 0
186 103 -139 0
-187 -182 0
-187 186 0
187 182 -186 0
-188 -185 0
-188 -187 0
188 185 187 0
-189 109 140 0
-189 -109 -140 0
189 -109 140 0
189 109 -140 0
-190 189 -188 0
-190 -189 188 0
190 -189 -188 0
190 189 188 0
-191 109 0
-191 140 0
191 -109 -140 0
-192 109 140 0
-192 -109 -140 0
192 -109 140 0
192 109 -140 0
-193 -188 0
-193 192 0
193 188 -192 0
-194 -191 0
-194 -193 0
194 191 193 0
-195 115 141 0
-195 -115 -141 0
195 -115 141 0
195 115 -141 0
-196 195 -194 0
-196 -195 194 0
196 -195 -194 0
196 195 194 0
-197 115 0
-197 141 0
197 -115 -141 0
-198 115 141 0
-198 -115 -141 0
198 -115 141 0
198 115 -141 0
-199 -194 0
-199 198 0
199 194 -198 0
-200 -197 0
-200 -199 0
200 197 199 0
-201 121 142 0
-201 -121 -142 0
201 -121 142 0
201 121 -142 0
-202 201 -200 0
-202 -201 200 0
202 -201 -200 0
202 201 200 0
-203 121 0
-203 142 0
203 -121 -142 0
-204 121 142 0
-204 -121 -142 0
204 -121 142 0
204 121 -142 0
-205 -200 0
-205 204 0
205 200 -204 0
-206 -203 0
-206 -205 0
206 203 205 0
-207 127 143 0
-207 -127 -143 0
207 -127 143 0
207 127 -143 0
-208 207 -206 0
-208 -207 206 0
208 -207 -206 0
208 207 206 0
-209 127 0
-209 143 0
209 -127 -143 0
-210 127 143 0
-210 -127 -143 0
210 -127 143 0
210 127 -143 0
-211 -206 0
-211 210 0
211 206 -210 0
-212 -209 0
-212 -211 0
212 209 211 0
-213 2 0
-213 19 0
213 -2 -19 0
-214 3 0
-214 19 0
214 -3 -19 0
-215 4 0
-215 19 0
215 -4 -19 0
-216 5 0
-216 19 0
216 -5 -19 0
-217 6 0
-217 19 0
217 -6 -19 0
-218 7 0
-218 19 0
218 -7 -19 0
-219 8 0
-219 19 0
219 -8 -19 0
-220 9 0
-220 19 0
220 -9 -19 0
-221 10 0
-221 19 0
221 -10 -19 0
-222 11 0
-222 19 0
222 -11 -19 0
-223 12 0
-223 19 0
223 -12 -19 0
-224 148 213 0
-224 -148 -213 0
224 -148 213 0
224 148 -213 0
-225 148 0
-225 213 0
225 -148 -213 0
-226 148 213 0
-226 -148 -213 0
226 -148 213 0
226 148 -213 0
-227 154 214 0
-227 -154 -214 0
227 -154 214 0
227 154 -214 0
-228 227 225 0
-228 -227 -225 0
228 -227 225 0
228 227 -225 0
-229 154 0
-229 214 0
229 -154 -214 0
-230 154 214 0
-230 -154 -214 0
230 -154 214 0
230 154 -214 0
-231 225 0
-231 230 0
231 -225 -230 0
-232 -229 0
-232 -231 0
232 229 231 0
-233 160 215 0
-233 -160 -215 0
233 -160 215 0
233 160 -215 0
-234 233 -232 0
-234 -233 232 0
234 -233 -232 0
234 233 232 0
-235 160 0
-235 215 0
235 -160 -215 0
-236 160 215 0
-236 -160 -215 0
236 -160 215 0
236 160 -215 0
-237 -232 0
-237 236 0
237 232 -236 0
-238 -235 0
-238 -237 0
238 235 237 0
-239 166 216 0
-239 -166 -216 0
239 -166 216 0
239 166 -216 0
-240 239 -238 0
-240 -239 238 0
240 -239 -238 0
240 239 238 0
-241 166 0
-241 216 0
241 -166 -216 0
-242 166 216 0
-242 -166 -216 0
242 -166 216 0
242 166 -216 0
-243 -238 0
-243 242 0
243 238 -242 0
-244 -241 0
-244 -243 0
244 241 243 0
-245 172 217 0
-245 -172 -217 0
245 -172 217 0
245 172 -217 0
-246 245 -244 0
-246 -245 244 0
246 -245 -244 0
246 245 244 0
-247 172 0
-247 217 0
247 -172 -217 0
-248 172 217 0
-248 -172 -217 0
248 -172 217 0
248 172 -217 0
-249 -244 0
-249 248 0
249 244 -248 0
-250 -247 0
-250 -249 0
250 247 249 0
-251 178 218 0
-251 -178 -218 0
251 -178 218 0
251 178 -218 0
-252 251 -250 0
-252 -251 250 0
252 -251 -250 0
252 251 250 0
-253 178 0
-253 218 0
253 -178 -218 0
-254 178 218 0
-254 -178 -218 0
254 -178 218 0
254 178 -218 0
-255 -250 0
-255 254 0
255 250 -254 0
-256 -253 0
-256 -255 0
256 253 255 0
-257 184 219 0
-257 -184 -219 0
257 -184 219 0
257 184 -219 0
-258 257 -256 0
-258 -257 256 0
258 -257 -256 0
258 257 256 0
-259 184 0
-259 219 0
259 -184 -219 0
-260 184 219 0
-260 -184 -219 0
260 -184 219 0
260 184 -219 0
-261 -256 0
-261 260 0
261 256 -260 0
-262 -259 0
-262 -261 0
262 259 261 0
-263 190 220 0
-263 -190 -220 0
263 -190 220 0
263 190 -220 0
-264 263 -262 0
-264 -263 262 0
264 -263 -262 0
264 263 262 0
-265 190 0
-265 220 0
265 -190 -220 0
-266 190 220 0
-266 -190 -220 0
266 -190 220 0
266 190 -220 0
-267 -262 0
-267 266 0
267 262 -266 0
-268 -265 0
-268 -267 0
268 265 267 0
-269 196 221 0
-269 -196 -221 0
269 -196 221 0
269 196 -221 0
-270 269 -268 0
-270 -269 268 0
270 -269 -268 0
270 269 268 0
-271 196 0
-271 221 0
271 -196 -221 0
-272 196 221 0
-272 -196 -221 0
272 -196 221 0
272 196 -221 0
-273 -268 0
-273 272 0
273 268 -272 0
-274 -271 0
-274 -273 0
274 271 273 0
-275 202 222 0
-275 -202 -222 0
275 -202 222 0
275 202 -222 0
-276 275 -274 0
-276 -275 274 0
276 -275 -274 0
276 275 274 0
-277 202 0
-277 222 0
277 -202 -222 0
-278 202 222 0
-278 -202 -222 0
278 -202 222 0
278 202 -222 0
-279 -274 0
-279 278 0
279 274 -278 0
-280 -277 0
-280 -279 0
280 277 279 0
-281 208 223 0
-281 -208 -223 0
281 -208 223 0
281 208 -223 0
-282 281 -280 0
-282 -281 280 0
282 -281 -280 0
282 281 280 0
-283 208 0
-283 223 0
283 -208 -223 0
-284 208 223 0
-284 -208 -223 0
284 -208 223 0
284 208 -223 0
-285 -280 0
-285 284 0
285 280 -284 0
-286 -283 0
-286 -285 0
286 283 285 0
-287 2 0
-287 20 0
287 -2 -20 0
-288 3 0
-288 20 0
288 -3 -20 0
-289 4 0
-289 20 0
289 -4 -20 0
-290 5 0
-290 20 0
290 -5 -20 0
-291 6 0
-291 20 0
291 -6 -20 0
-292 7 0
-292 20 0
292 -7 -20 0
-293 8 0
-293 20 0
293 -8 -20 0
-294 9 0
-294 20 0
294 -9 -20 0
-295 10 0
-295 20 0
295 -10 -20 0
-296 11 0
-296 20 0
296 -11 -20 0
-297 228 287 0
-297 -228 -287 0
297 -228 287 0
297 228 -287 0
-298 228 0
-298 287 0
298 -228 -287 0
-299 228 287 0
-299 -228 -287 0
299 -228 287 0
299 228 -287 0
-300 234 288 0
-300 -234 -288 0
300 -234 288 0
300 234 -288 0
-301 300 298 0
-301 -300 -298 0
301 -300 298 0
301 300 -298 0
-302 234 0
-302 288 0
302 -234 -288 0
-303 234 288 0
-303 -234 -288 0
303 -234 288 0
303 234 -288 0
-304 298 0
-304 303 0
304 -298 -303 0
-305 -302 0
-305 -304 0
305 302 304 0
-306 240 289 0
-306 -240 -289 0
306 -240 289 0
306 240 -289 0
-307 306 -305 0
-307 -306 305 0
307 -306 -305 0
307 306 305 0
-308 240 0
-308 289 0
308 -240 -289 0
-309 240 289 0
-309 -240 -289 0
309 -240 289 0
309 240 -289 0
-310 -305 0
-310 309 0
310 305 -309 0
-311 -308 0
-311 -310 0
311 308 310 0
-312 246 290 0
-312 -246 -290 0
312 -246 290 0
312 246 -290 0
-313 312 -311 0
-313 -312 311 0
313 -312 -311 0
313 312 311 0
-314 246 0
-314 290 0
314 -246 -290 0
-315 246 290 0
-315 -246 -290 0
315 -246 290 0
315 246 -290 0
-316 -311 0
-316 315 0
316 311 -315 0
-317 -314 0
-317 -316 0
317 314 316 0
-318 252 291 0
-318 -252 -291 0
318 -252 291 0
318 252 -291 0
-319 318 -317 0
-319 -318 317 0
319 -318 -317 0
319 318 317 0
-320 252 0
-320 291 0
320 -252 -291 0
-321 252 291 0
-321 -252 -291 0
321 -252 291 0
321 252 -291 0
-322 -317 0
-322 321 0
322 317 -321 0
-323 -320 0
-323 -322 0
323 320 322 0
-324 258 292 0
-324 -258 -292 0
324 -258 292 0
324 258 -292 0
-325 324 -323 0
-325 -324 323 0
325 -324 -323 0
325 324 323 0
-326 258 0
-326 292 0
326 -258 -292 0
-327 258 292 0
-327 -258 -292 0
327 -258 292 0
327 258 -292 0
-328 -323 0
-328 327 0
328 323 -327 0
-329 -326 0
-329 -328 0
329 326 328 0
-330 264 293 0
-330 -264 -293 0
330 -264 293 0
330 264 -293 0
-331 330 -329 0
-331 -330 329 0
331 -330 -329 0
331 330 329 0
-332 264 0
-332 293 0
332 -264 -293 0
-333 264 293 0
-333 -264 -293 0
333 -264 293 0
333 264 -293 0
-334 -329 0
-334 333 0
334 329 -333 0
-335 -332 0
-335 -334 0
335 332 334 0
-336 270 294 0
-336 -270 -294 0
336 -270 294 0
336 270 -294 0
-337 336 -335 0
-337 -336 335 0
337 -336 -335 0
337 336 335 0
-338 270 0
-338 294 0
338 -270 -294 0
-339 270 294 0
-339 -270 -294 0
339 -270 294 0
339 270 -294 0
-340 -335 0
-340 339 0
340 335 -339 0
-341 -338 0
-341 -340 0
341 338 340 0
-342 276 295 0
-342 -276 -295 0
342 -276 295 0
342 276 -295 0
-343 342 -341 0
-343 -342 341 0
343 -342 -341 0
343 342 341 0
-344 276 0
-344 295 0
344 -276 -295 0
-345 276 295 0
-345 -276 -295 0
345 -276 295 0
345 276 -295 0
-346 -341 0
-346 345 0
346 341 -345 0
-347 -344 0
-347 -346 0
347 344 346 0
-348 282 296 0
-348 -282 -296 0
348 -282 296 0
348 282 -296 0
-349 348 -347 0
-349 -348 347 0
349 -348 -347 0
349 348 347 0
-350 282 0
-350 296 0
350 -282 -296 0
-351 282 296 0
-351 -282 -296 0
351 -282 296 0
351 282 -296 0
-352 -347 0
-352 351 0
352 347 -351 0
-353 -350 0
-353 -352 0
353 350 352 0
-354 2 0
-354 21 0
354 -2 -21 0
-355 3 0
-355 21 0
355 -3 -21 0
-356 4 0
-356 21 0
356 -4 -21 0
-357 5 0
-357 21 0
357 -5 -21 0
-358 6 0
-358 21 0
358 -6 -21 0
-359 7 0
-359 21 0
359 -7 -21 0
-360 8 0
-360 21 0
360 -8 -21 0
-361 9 0
-361 21 0
361 -9 -21 0
-362 10 0
-362 21 0
362 -10 -21 0
-363 301 354 0
-363 -301 -354 0
363 -301 354 0
363 301 -354 0
-364 301 0
-364 354 0
364 -301 -354 0
-365 301 354 0
-365 -301 -354 0
365 -301 354 0
365 301 -354 0
-366 307 355 0
-366 -307 -355 0
366 -307 355 0
366 307 -355 0
-367 366 364 0
-367 -366 -364 0
367 -366 364 0
367 366 -364 0
-368 307 0
-368 355 0
368 -307 -355 0
-369 307 355 0
-369 -307 -355 0
369 -307 355 0
369 307 -355 0
-370 364 0
-370 369 0
370 -364 -369 0
-371 -368 0
-371 -370 0
371 368 370 0
-372 313 356 0
-372 -313 -356 0
372 -313 356 0
372 313 -356 0
-373 372 -371 0
-373 -372 371 0
373 -372 -371 0
373 372 371 0
-374 313 0
-374 356 0
374 -313 -356 0
-375 313 356 0
-375 -313 -356 0
375 -313 356 0
375 313 -356 0
-376 -371 0
-376 375 0
376 371 -375 0
-377 -374 0
-377 -376 0
377 374 376 0
-378 319 357 0
-378 -319 -357 0
378 -319 357 0
378 319 -357 0
-379 378 -377 0
-379 -378 377 0
379 -378 -377 0
379 378 377 0
-380 319 0
-380 357 0
380 -319 -357 0
-381 319 357 0
-381 -319 -357 0
381 -319 357 0
381 319 -357 0
-382 -377 0
-382 381 0
382 377 -381 0
-383 -380 0
-383 -382 0
383 380 382 0
-384 325 358 0
-384 -325 -358 0
384 -325 358 0
384 325 -358 0
-385 384 -383 0
-385 -384 383 0
385 -384 -383 0
385 384 383 0
-386 325 0
-386 358 0
386 -325 -358 0
-387 325 358 0
-387 -325 -358 0
387 -325 358 0
387 325 -358 0
-388 -383 0
-388 387 0
388 383 -387 0
-389 -386 0
-389 -388 0
389 386 388 0
-390 331 359 0
-390 -331 -359 0
390 -331 359 0
390 331 -359 0
-391 390 -389 0
-391 -390 389 0
391 -390 -389 0
391 390 389 0
-392 331 0
-392 359 0
392 -331 -359 0
-393 331 359 0
-393 -331 -359 0
393 -331 359 0
393 331 -359 0
-394 -389 0
-394 393 0
394 389 -393 0
-395 -392 0
-395 -394 0
395 392 394 0
-396 337 360 0
-396 -337 -360 0
396 -337 360 0
396 337 -360 0
-397 396 -395 0
-397 -396 395 0
397 -396 -395 0
397 396 395 0
-398 337 0
-398 360 0
398 -337 -360 0
-399 337 360 0
-399 -337 -360 0
399 -337 360 0
399 337 -360 0
-400 -395 0
-400 399 0
400 395 -399 0
-401 -398 0
-401 -400 0
401 398 400 0
-402 343 361 0
-402 -343 -361 0
402 -343 361 0
402 343 -361 0
-403 402 -401 0
-403 -402 401 0
403 -402 -401 0
403 402 401 0
-404 343 0
-404 361 0
404 -343 -361 0
-405 343 361 0
-405 -343 -361 0
405 -343 361 0
405 343 -361 0
-406 -401 0
-406 405 0
406 401 -405 0
-407 -404 0
-407 -406 0
407 404 406 0
-408 349 362 0
-408 -349 -362 0
408 -349 362 0
408 349 -362 0
-409 408 -407 0
-409 -408 407 0
409 -408 -407 0
409 408 407 0
-410 349 0
-410 362 0
410 -349 -362 0
-411 349 362 0
-411 -349 -362 0
411 -349 362 0
411 349 -362 0
-412 -407 0
-412 411 0
412 407 -411 0
-413 -410 0
-413 -412 0
413 410 412 0
-414 2 0
-414 22 0
414 -2 -22 0
-415 3 0
-415 22 0
415 -3 -22 0
-416 4 0
-416 22 0
416 -4 -22 0
-417 5 0
-417 22 0
417 -5 -22 0
-418 6 0
-418 22 0
418 -6 -22 0
-419 7 0
-419 22 0
419 -7 -22 0
-420 8 0
-420 22 0
420 -8 -22 0
-421 9 0
-421 22 0
421 -9 -22 0
-422 367 414 0
-422 -367 -414 0
422 -367 414 0
422 367 -414 0
-423 367 0
-423 414 0
423 -367 -414 0
-424 367 414 0
-424 -367 -414 0
424 -367 414 0
424 367 -414 0
-425 373 415 0
-425 -373 -415 0
425 -373 415 0
425 373 -415 0
-426 425 423 0
-426 -425 -423 0
426 -425 423 0
426 425 -423 0
-427 373 0
-427 415 0
427 -373 -415 0
-428 373 415 0
-428 -373 -415 0
428 -373 415 0
428 373 -415 0
-429 423 0
-429 428 0
429 -423 -428 0
-430 -427 0
-430 -429 0
430 427 429 0
-431 379 416 0
-431 -379 -416 0
431 -379 416 0
431 379 -416 0
-432 431 -430 0
-432 -431 430 0
432 -431 -430 0
432 431 430 0
-433 379 0
-433 416 0
433 -379 -416 0
-434 379 416 0
-434 -379 -416 0
434 -379 416 0
434 379 -416 0
-435 -430 0
-435 434 0
435 430 -434 0
-436 -433 0
-436 -435 0
436 433 435 0
-437 385 417 0
-437 -385 -417 0
437 -385 417 0
437 385 -417 0
-438 437 -436 0
-438 -437 436 0
438 -437 -436 0
438 437 436 0
-439 385 0
-439 417 0
439 -385 -417 0
-440 385 417 0
-440 -385 -417 0
440 -385 417 0
440 385 -417 0
-441 -436 0
-441 440 0
441 436 -440 0
-442 -439 0
-442 -441 0
442 439 441 0
-443 391 418 0
-443 -391 -418 0
443 -391 418 0
443 391 -418 0
-444 443 -442 0
-444 -443 442 0
444 -443 -442 0
444 443 442 0
-445 391 0
-445 418 0
445 -391 -418 0
-446 391 418 0
-446 -391 -418 0
446 -391 418 0
446 391 -418 0
-447 -442 0
-447 446 0
447 442 -446 0
-448 -445 0
-448 -447 0
448 445 447 0
-449 397 419 0
-449 -397 -419 0
449 -397 419 0
449 397 -419 0
-450 449 -448 0
-450 -449 448 0
450 -449 -448 0
450 449 448 0
-451 397 0
-451 419 0
451 -397 -419 0
-452 397 419 0
-452 -397 -419 0
452 -397 419 0
452 397 -419 0
-453 -448 0
-453 452 0
453 448 -452 0
-454 -451 0
-454 -453 0
454 451 453 0
-455 403 420 0
-455 -403 -420 0
455 -403 420 0
455 403 -420 0
-456 455 -454 0
-456 -455 454 0
456 -455 -454 0
456 455 454 0
-457 403 0
-457 420 0
457 -403 -420 0
-458 403 420 0
-458 -403 -420 0
458 -403 420 0
458 403 -420 0
-459 -454 0
-459 458 0
459 454 -458 0
-460 -457 0
-460 -459 0
460 457 459 0
-461 409 421 0
-461 -409 -421 0
461 -409 421 0
461 409 -421 0
-462 461 -460 0
-462 -461 460 0
462 -461 -460 0
462 461 460 0
-463 409 0
-463 421 0
463 -409 -421 0
-464 409 421 0
-464 -409 -421 0
464 -409 421 0
464 409 -421 0
-465 -460 0
-465 464 0
465 460 -464 0
-466 -463 0
-466 -465 0
466 463 465 0
-467 2 0
-467 23 0
467 -2 -23 0
-468 3 0
-468 23 0
468 -3 -23 0
-469 4 0
-469 23 0
469 -4 -23 0
-470 5 0
-470 23 0
470 -5 -23 0
-471 6 0
-471 23 0
471 -6 -23 0
-472 7 0
-472 23 0
472 -7 -23 0
-473 8 0
-473 23 0
473 -8 -23 0
-474 426 467 0
-474 -426 -467 0
474 -426 467 0
474 426 -467 0
-475 426 0
-475 467 0
475 -426 -467 0
-476 426 467 0
-476 -426 -467 0
476 -426 467 0
476 426 -467 0
-477 432 468 0
-477 -432 -468 0
477 -432 468 0
477 432 -468 0
-478 477 475 0
-478 -477 -475 0
478 -477 475 0
478 477 -475 0
-479 432 0
-479 468 0
479 -432 -468 0
-480 432 468 0
-480 -432 -468 0
480 -432 468 0
480 432 -468 0
-481 475 0
-481 480 0
481 -475 -480 0
-482 -479 0
-482 -481 0
482 479 481 0
-483 438 469 0
-483 -438 -469 0
483 -438 469 0
483 438 -469 0
-484 483 -482 0
-484 -483 482 0
484 -483 -482 0
484 483 482 0
-485 438 0
-485 469 0
485 -438 -469 0
-486 438 469 0
-486 -438 -469 0
486 -438 469 0
486 438 -469 0
-487 -482 0
-487 486 0
487 482 -486 0
-488 -485 0
-488 -487 0
488 485 487 0
-489 444 470 0
-489 -444 -470 0
489 -444 470 0
489 444 -470 0
-490 489 -488 0
-490 -489 488 0
490 -489 -488 0
490 489 488 0
-491 444 0
-491 470 0
491 -444 -470 0
-492 444 470 0
-492 -444 -470 0
492 -444 470 0
492 444 -470 0
-493 -488 0
-493 492 0
493 488 -492 0
-494 -491 0
-494 -493 0
494 491 493 0
-495 450 471 0
-495 -450 -471 0
495 -450 471 0
495 450 -471 0
-496 495 -494 0
-496 -495 494 0
496 -495 -494 0
496 495 494 0
-497 450 0
-497 471 0
497 -450 -471 0
-498 450 471 0
-498 -450 -471 0
498 -450 471 0
498 450 -471 0
-499 -494 0
-499 498 0
499 494 -498 0
-500 -497 0
-500 -499 0
500 497 499 0
-501 456 472 0
-501 -456 -472 0
501 -456 472 0
501 456 -472 0
-502 501 -500 0
-502 -501 500 0
502 -501 -500 0
502 501 500 0
-503 456 0
-503 472 0
503 -456 -472 0
-504 456 472 0
-504 -456 -472 0
504 -456 472 0
504 456 -472 0
-505 -500 0
-505 504 0
505 500 -504 0
-506 -503 0
-506 -505 0
506 503 505 0
-507 462 473 0
-507 -462 -473 0
507 -462 473 0
507 462 -473 0
-508 507 -506 0
-508 -507 506 0
508 -507 -506 0
508 507 506 0
-509 462 0
-509 473 0
509 -462 -473 0
-510 462 473 0
-510 -462 -473 0
510 -462 473 0
510 462 -473 0
-511 -506 0
-511 510 0
511 506 -510 0
-512 -509 0
-512 -511 0
512 509 511 0
-513 2 0
-513 24 0
513 -2 -24 0
-514 3 0
-514 24 0
514 -3 -24 0
-515 4 0
-515 24 0
515 -4 -24 0
-516 5 0
-516 24 0
516 -5 -24 0
-517 6 0
-517 24 0
517 -6 -24 0
-518 7 0
-518 24 0
518 -7 -24 0
-519 478 513 0
-519 -478 -513 0
519 -478 513 0
519 478 -513 0
-520 478 0
-520 513 0
520 -478 -513 0
-521 478 513 0
-521 -478 -513 0
521 -478 513 0
521 478 -513 0
-522 484 514 0
-522 -484 -514 0
522 -484 514 0
522 484 -514 0
-523 522 520 0
-523 -522 -520 0
523 -522 520 0
523 522 -520 0
-524 484 0
-524 514 0
524 -484 -514 0
-525 484 514 0
-525 -484 -514 0
525 -484 514 0
525 484 -514 0
-526 520 0
-526 525 0
526 -520 -525 0
-527 -524 0
-527 -526 0
527 524 526 0
-528 490 515 0
-528 -490 -515 0
528 -490 515 0
528 490 -515 0
-529 528 -527 0
-529 -528 527 0
529 -528 -527 0
529 528 527 0
-530 490 0
-530 515 0
530 -490 -515 0
-531 490 515 0
-531 -490 -515 0
531 -490 515 0
531 490 -515 0
-532 -527 0
-532 531 0
532 527 -531 0
-533 -530 0
-533 -532 0
533 530 532 0
-534 496 516 0
-534 -496 -516 0
534 -496 516 0
534 496 -516 0
-535 534 -533 0
-535 -534 533 0
535 -534 -533 0
535 534 533 0
-536 496 0
-536 516 0
536 -496 -516 0
-537 496 516 0
-537 -496 -516 0
537 -496 516 0
537 496 -516 0
-538 -533 0
-538 537 0
538 533 -537 0
-539 -536 0
-539 -538 0
539 536 538 0
-540 502 517 0
-540 -502 -517 0
540 -502 517 0
540 502 -517 0
-541 540 -539 0
-541 -540 539 0
541 -540 -539 0
541 540 539 0
-542 502 0
-542 517 0
542 -502 -517 0
-543 502 517 0
-543 -502 -517 0
543 -502 517 0
543 502 -517 0
-544 -539 0
-544 543 0
544 539 -543 0
-545 -542 0
-545 -544 0
545 542 544 0
-546 508 518 0
-546 -508 -518 0
546 -508 518 0
546 508 -518 0
-547 546 -545 0
-547 -546 545 0
547 -546 -545 0
547 546 545 0
-548 508 0
-548 518 0
548 -508 -518 0
-549 508 518 0
-549 -508 -518 0
549 -508 518 0
549 508 -518 0
-550 -545 0
-550 549 0
550 545 -549 0
-551 -548 0
-551 -550 0
551 548 550 0
-552 2 0
-552 25 0
552 -2 -25 0
-553 3 0
-553 25 0
553 -3 -25 0
-554 4 0
-554 25 0
554 -4 -25 0
-555 5 0
-555 25 0
555 -5 -25 0
-556 6 0
-556 25 0
556 -6 -25 0
-557 523 552 0
-557 -523 -552 0
557 -523 552 0
557 523 -552 0
-558 523 0
-558 552 0
558 -523 -552 0
-559 523 552 0
-559 -523 -552 0
559 -523 552 0
559 523 -552 0
-560 529 553 0
-560 -529 -553 0
560 -529 553 0
560 529 -553 0
-561 560 558 0
-561 -560 -558 0
561 -560 558 0
561 560 -558 0
-562 529 0
-562 553 0
562 -529 -553 0
-563 529 553 0
-563 -529 -553 0
563 -529 553 0
563 529 -553 0
-564 558 0
-564 563 0
564 -558 -563 0
-565 -562 0
-565 -564 0
565 562 564 0
-566 535 554 0
-566 -535 -554 0
566 -535 554 0
566 535 -554 0
-567 566 -565 0
-567 -566 565 0
567 -566 -565 0
567 566 565 0
-568 535 0
-568 554 0
568 -535 -554 0
-569 535 554 0
-569 -535 -554 0
569 -535 554 0
569 535 -554 0
-570 -565 0
-570 569 0
570 565 -569 0
-571 -568 0
-571 -570 0
571 568 570 0
-572 541 555 0
-572 -541 -555 0
572 -541 555 0
572 541 -555 0
-573 572 -571 0
-573 -572 571 0
573 -572 -571 0
573 572 571 0
-574 541 0
-574 555 0
574 -541 -555 0
-575 541 555 0
-575 -541 -555 0
575 -541 555 0
575 541 -555 0
-576 -571 0
-576 575 0
576 571 -575 0
-577 -574 0
-577 -576 0
577 574 576 0
-578 547 556 0
-578 -547 -556 0
578 -547 556 0
578 547 -556 0
-579 578 -577 0
-579 -578 577 0
579 -578 -577 0
579 578 577 0
-580 547 0
-580 556 0
580 -547 -556 0
-581 547 556 0
-581 -547 -556 0
581 -547 556 0
581 547 -556 0
-582 -577 0
-582 581 0
582 577 -581 0
-583 -580 0
-583 -582 0
583 580 582 0
-584 2 0
-584 26 0
584 -2 -26 0
-585 3 0
-585 26 0
585 -3 -26 0
-586 4 0
-586 26 0
586 -4 -26 0
-587 5 0
-587 26 0
587 -5 -26 0
-588 561 584 0
-588 -561 -584 0
588 -561 584 0
588 561 -584 0
-589 561 0
-589 584 0
589 -561 -584 0
-590 561 584 0
-590 -561 -584 0
590 -561 584 0
590 561 -584 0
-591 567 585 0
-591 -567 -585 0
591 -567 585 0
591 567 -585 0
-592 591 589 0
-592 -591 -589 0
592 -591 589 0
592 591 -589 0
-593 567 0
-593 585 0
593 -567 -585 0
-594 567 585 0
-594 -567 -585 0
594 -567 585 0
594 567 -585 0
-595 589 0
-595 594 0
595 -589 -594 0
-596 -593 0
-596 -595 0
596 593 595 0
-597 573 586 0
-597 -573 -586 0
597 -573 586 0
597 573 -586 0
-598 597 -596 0
-598 -597 596 0
598 -597 -596 0
598 597 596 0
-599 573 0
-599 586 0
599 -573 -586 0
-600 573 586 0
-600 -573 -586 0
600 -573 586 0
600 573 -586 0
-601 -596 0
-601 600 0
601 596 -600 0
-602 -599 0
-602 -601 0
602 599 601 0
-603 579 587 0
-603 -579 -587 0
603 -579 587 0
603 579 -587 0
-604 603 -602 0
-604 -603 602 0
604 -603 -602 0
604 603 602 0
-605 579 0
-605 587 0
605 -579 -587 0
-606 579 587 0
-606 -579 -587 0
606 -579 587 0
606 579 -587 0
-607 -602 0
-607 606 0
607 602 -606 0
-608 -605 0
-608 -607 0
608 605 607 0
-609 2 0
-609 27 0
609 -2 -27 0
-610 3 0
-610 27 0
610 -3 -27 0
-611 4 0
-611 27 0
611 -4 -27 0
-612 592 609 0
-612 -592 -609 0
612 -592 609 0
612 592 -609 0
-613 592 0
-613 609 0
613 -592 -609 0
-614 592 609 0
-614 -592 -609 0
614 -592 609 0
614 592 -609 0
-615 598 610 0
-615 -598 -610 0
615 -598 610 0
615 598 -610 0
-616 615 613 0
-616 -615 -613 0
616 -615 613 0
616 615 -613 0
-617 598 0
-617 610 0
617 -598 -610 0
-618 598 610 0
-618 -598 -610 0
618 -598 610 0
618 598 -610 0
-619 613 0
-619 618 0
619 -613 -618 0
-620 -617 0
-620 -619 0
620 617 619 0
-621 604 611 0
-621 -604 -611 0
621 -604 611 0
621 604 -611 0
-622 621 -620 0
-622 -621 620 0
622 -621 -620 0
622 621 620 0
-623 604 0
-623 611 0
623 -604 -611 0
-624 604 611 0
-624 -604 -611 0
624 -604 611 0
624 604 -611 0
-625 -620 0
-625 624 0
625 620 -624 0
-626 -623 0
-626 -625 0
626 623 625 0
-627 2 0
-627 28 0
627 -2 -28 0
-628 3 0
-628 28 0
628 -3 -28 0
-629 616 627 0
-629 -616 -627 0
629 -616 627 0
629 616 -627 0
-630 616 0
-630 627 0
630 -616 -627 0
-631 616 627 0
-631 -616 -627 0
631 -616 627 0
631 616 -627 0
-632 622 628 0
-632 -622 -628 0
632 -622 628 0
632 622 -628 0
-633 632 630 0
-633 -632 -630 0
633 -632 630 0
633 632 -630 0
-634 622 0
-634 628 0
634 -622 -628 0
-635 622 628 0
-635 -622 -628 0
635 -622 628 0
635 622 -628 0
-636 630 0
-636 635 0
636 -630 -635 0
-637 -634 0
-637 -636 0
637 634 636 0
-638 2 0
-638 29 0
638 -2 -29 0
-639 633 638 0
-639 -633 -638 0
639 -633 638 0
639 633 -638 0
-640 633 0
-640 638 0
640 -633 -638 0
-641 633 638 0
-641 -633 -638 0
641 -633 638 0
641 633 -638 0
-30 1 0
30 -1 0
-57 -1 0
57 1 0
-144 -1 0
144 1 0
-224 1 0
224 -1 0
-297 1 0
297 -1 0
-363 1 0
363 -1 0
-422 -1 0
422 1 0
-474 1 0
474 -1 0
-519 1 0
519 -1 0
-557 -1 0
557 1 0
-588 -1 0
588 1 0
-612 -1 0
612 1 0
-629 -1 0
629 1 0
-639 1 0
639 -1 0
3 4 5 6 7 8 9 10 11 12 13 14 15 0
17 18 19 20 21 22 23 24 25 26 27 28 29 0
