p cnf 844 2813
1 0
-34 2 0
-34 18 0
34 -2 -18 0
-35 3 0
-35 18 0
35 -3 -18 0
-36 4 0
-36 18 0
36 -4 -18 0
-37 5 0
-37 18 0
37 -5 -18 0
-38 6 0
-38 18 0
38 -6 -18 0
-39 7 0
-39 18 0
39 -7 -18 0
-40 8 0
-40 18 0
40 -8 -18 0
-41 9 0
-41 18 0
41 -9 -18 0
-42 10 0
-42 18 0
42 -10 -18 0
-43 11 0
-43 18 0
43 -11 -18 0
-44 12 0
-44 18 0
44 -12 -18 0
-45 13 0
-45 18 0
45 -13 -18 0
-46 14 0
-46 18 0
46 -14 -18 0
-47 15 0
-47 18 0
47 -15 -18 0
-48 16 0
-48 18 0
48 -16 -18 0
-49 17 0
-49 18 0
49 -17 -18 0
-50 2 0
-50 19 0
50 -2 -19 0
-51 3 0
-51 19 0
51 -3 -19 0
-52 4 0
-52 19 0
52 -4 -19 0
-53 5 0
-53 19 0
53 -5 -19 0
-54 6 0
-54 19 0
54 -6 -19 0
-55 7 0
-55 19 0
55 -7 -19 0
-56 8 0
-56 19 0
56 -8 -19 0
-57 9 0
-57 19 0
57 -9 -19 0
-58 10 0
-58 19 0
58 -10 -19 0
-59 11 0
-59 19 0
59 -11 -19 0
-60 12 0
-60 19 0
60 -12 -19 0
-61 13 0
-61 19 0
61 -13 -19 0
-62 14 0
-62 19 0
62 -14 -19 0
-63 15 0
-63 19 0
63 -15 -19 0
-64 16 0
-64 19 0
64 -16 -19 0
-65 35 50 0
-65 -35 -50 0
65 -35 50 0
65 35 -50 0
-66 35 0
-66 50 0
66 -35 -50 0
-67 35 50 0
-67 -35 -50 0
67 -35 50 0
67 35 -50 0
-68 36 51 0
-68 -36 -51 0
68 -36 51 0
68 36 -51 0
-69 68 66 0
-69 -68 -66 0
69 -68 66 0
69 68 -66 0
-70 36 0
-70 51 0
70 -36 -51 0
-71 36 51 0
-71 -36 -51 0
71 -36 51 0
71 36 -51 0
-72 66 0
-72 71 0
72 -66 -71 0
-73 -70 0
-73 -72 0
73 70 72 0
-74 37 52 0
-74 -37 -52 0
74 -37 52 0
74 37 -52 0
-75 74 -73 0
-75 -74 73 0
75 -74 -73 0
75 74 73 0
-76 37 0
-76 52 0
76 -37 -52 0
-77 37 52 0
-77 -37 -52 0
77 -37 52 0
77 37 -52 0
-78 -73 0
-78 77 0
78 73 -77 0
-79 -76 0
-79 -78 0
79 76 78 0
-80 38 53 0
-80 -38 -53 0
80 -38 53 0
80 38 -53 0
-81 80 -79 0
-81 -80 79 0
81 -80 -79 0
81 80 79 0
-82 38 0
-82 53 0
82 -38 -53 0
-83 38 53 0
-83 -38 -53 0
83 -38 53 0
83 38 -53 0
-84 -79 0
-84 83 0
84 79 -83 0
-85 -82 0
-85 -84 0
85 82 84 0
-86 39 54 0
-86 -39 -54 0
86 -39 54 0
86 39 -54 0
-87 86 -85 0
-87 -86 85 0
87 -86 -85 0
87 86 85 0
-88 39 0
-88 54 0
88 -39 -54 0
-89 39 54 0
-89 -39 -54 0
89 -39 54 0
89 39 -54 0
-90 -85 0
-90 89 0
90 85 -89 0
-91 -88 0
-91 -90 0
91 88 90 0
-92 40 55 0
-92 -40 -55 0
92 -40 55 0
92 40 -55 0
-93 92 -91 0
-93 -92 91 0
93 -92 -91 0
93 92 91 0
-94 40 0
-94 55 0
94 -40 -55 0
-95 40 55 0
-95 -40 -55 0
95 -40 55 0
95 40 -55 0
-96 -91 0
-96 95 0
96 91 -95 0
-97 -94 0
-97 -96 0
97 94 96 0
-98 41 56 0
-98 -41 -56 0
98 -41 56 0
98 41 -56 0
-99 98 -97 0
-99 -98 97 0
99 -98 -97 0
99 98 97 0
-100 41 0
-100 56 0
100 -41 -56 0
-101 41 56 0
-101 -41 -56 0
101 -41 56 0
101 41 -56 0
-102 -97 0
-102 101 0
102 97 -101 0
-103 -100 0
-103 -102 0
103 100 102 0
-104 42 57 0
-104 -42 -57 0
104 -42 57 0
104 42 -57 0
-105 104 -103 0
-105 -104 103 0
105 -104 -103 0
105 104 103 0
-106 42 0
-106 57 0
106 -42 -57 0
-107 42 57 0
-107 -42 -57 0
107 -42 57 0
107 42 -57 0
-108 -103 0
-108 107 0
108 103 -107 0
-109 -106 0
-109 -108 0
109 106 108 0
-110 43 58 0
-110 -43 -58 0
110 -43 58 0
110 43 -58 0
-111 110 -109 0
-111 -110 109 0
111 -110 -109 0
111 110 109 0
-112 43 0
-112 58 0
112 -43 -58 0
-113 43 58 0
-113 -43 -58 0
113 -43 58 0
113 43 -58 0
-114 -109 0
-114 113 0
114 109 -113 0
-115 -112 0
-115 -114 0
115 112 114 0
-116 44 59 0
-116 -44 -59 0
116 -44 59 0
116 44 -59 0
-117 116 -115 0
-117 -116 115 0
117 -116 -115 0
117 116 115 0
-118 44 0
-118 59 0
118 -44 -59 0
-119 44 59 0
-119 -44 -59 0
119 -44 59 0
119 44 -59 0
-120 -115 0
-120 119 0
120 115 -119 0
-121 -118 0
-121 -120 0
121 118 120 0
-122 45 60 0
-122 -45 -60 0
122 -45 60 0
122 45 -60 0
-123 122 -121 0
-123 -122 121 0
123 -122 -121 0
123 122 121 0
-124 45 0
-124 60 0
124 -45 -60 0
-125 45 60 0
-125 -45 -60 0
125 -45 60 0
125 45 -60 0
-126 -121 0
-126 125 0
126 121 -125 0
-127 -124 0
-127 -126 0
127 124 126 0
-128 46 61 0
-128 -46 -61 0
128 -46 61 0
128 46 -61 0
-129 128 -127 0
-129 -128 127 0
129 -128 -127 0
129 128 127 0
-130 46 0
-130 61 0
130 -46 -61 0
-131 46 61 0
-131 -46 -61 0
131 -46 61 0
131 46 -61 0
-132 -127 0
-132 131 0
132 127 -131 0
-133 -130 0
-133 -132 0
133 130 132 0
-134 47 62 0
-134 -47 -62 0
134 -47 62 0
134 47 -62 0
-135 134 -133 0
-135 -134 133 0
135 -134 -133 0
135 134 133 0
-136 47 0
-136 62 0
136 -47 -62 0
-137 47 62 0
-137 -47 -62 0
137 -47 62 0
137 47 -62 0
-138 -133 0
-138 137 0
138 133 -137 0
-139 -136 0
-139 -138 0
139 136 138 0
-140 48 63 0
-140 -48 -63 0
140 -48 63 0
140 48 -63 0
-141 140 -139 0
-141 -140 139 0
141 -140 -139 0
141 140 139 0
-142 48 0
-142 63 0
142 -48 -63 0
-143 48 63 0
-143 -48 -63 0
143 -48 63 0
143 48 -63 0
-144 -139 0
-144 143 0
144 139 -143 0
-145 -142 0
-145 -144 0
145 142 144 0
-146 49 64 0
-146 -49 -64 0
146 -49 64 0
146 49 -64 0
-147 146 -145 0
-147 -146 145 0
147 -146 -145 0
147 146 145 0
-148 49 0
-148 64 0
148 -49 -64 0
-149 49 64 0
-149 -49 -64 0
149 -49 64 0
149 49 -64 0
-150 -145 0
-150 149 0
150 145 -149 0
-151 -148 0
-151 -150 0
151 148 150 0
-152 2 0
-152 20 0
152 -2 -20 0
-153 3 0
-153 20 0
153 -3 -20 0
-154 4 0
-154 20 0
154 -4 -20 0
-155 5 0
-155 20 0
155 -5 -20 0
-156 6 0
-156 20 0
156 -6 -20 0
-157 7 0
-157 20 0
157 -7 -20 0
-158 8 0
-158 20 0
158 -8 -20 0
-159 9 0
-159 20 0
159 -9 -20 0
-160 10 0
-160 20 0
160 -10 -20 0
-161 11 0
-161 20 0
161 -11 -20 0
-162 12 0
-162 20 0
162 -12 -20 0
-163 13 0
-163 20 0
163 -13 -20 0
-164 14 0
-164 20 0
164 -14 -20 0
-165 15 0
-165 20 0
165 -15 -20 0
-166 69 152 0
-166 -69 -152 0
166 -69 152 0
166 69 -152 0
-167 69 0
-167 152 0
167 -69 -152 0
-168 69 152 0
-168 -69 -152 0
168 -69 152 0
168 69 -152 0
-169 75 153 0
-169 -75 -153 0
169 -75 153 0
169 75 -153 0
-170 169 167 0
-170 -169 -167 0
170 -169 167 0
170 169 -167 0
-171 75 0
-171 153 0
171 -75 -153 0
-172 75 153 0
-172 -75 -153 0
172 -75 153 0
172 75 -153 0
-173 167 0
-173 172 0
173 -167 -172 0
-174 -171 0
-174 -173 0
174 171 173 0
-175 81 154 0
-175 -81 -154 0
175 -81 154 0
175 81 -154 0
-176 175 -174 0
-176 -175 174 0
176 -175 -174 0
176 175 174 0
-177 81 0
-177 154 0
177 -81 -154 0
-178 81 154 0
-178 -81 -154 0
178 -81 154 0
178 81 -154 0
-179 -174 0
-179 178 0
179 174 -178 0
-180 -177 0
-180 -179 0
180 177 179 0
-181 87 155 0
-181 -87 -155 0
181 -87 155 0
181 87 -155 0
-182 181 -180 0
-182 -181 180 0
182 -181 -180 0
182 181 180 0
-183 87 0
-183 155 0
183 -87 -155 0
-184 87 155 0
-184 -87 -155 0
184 -87 155 0
184 87 -155 0
-185 -180 0
-185 184 0
185 180 -184 0
-186 -183 0
-186 -185 0
186 183 185 0
-187 93 156 0
-187 -93 -156 0
187 -93 156 0
187 93 -156 0
-188 187 -186 0
-188 -187 186 0
188 -187 -186 0
188 187 186 0
-189 93 0
-189 156 0
189 -93 -156 0
-190 93 156 0
-190 -93 -156 0
190 -93 156 0
190 93 -156 0
-191 -186 0
-191 190 0
191 186 -190 0
-192 -189 0
-192 -191 0
192 189 191 0
-193 99 157 0
-193 -99 -157 0
193 -99 157 0
193 99 -157 0
-194 193 -192 0
-194 -193 192 0
194 -193 -192 0
194 193 192 0
-195 99 0
-195 157 0
195 -99 -157 0
-196 99 157 0
-196 -99 -157 0
196 -99 157 0
196 99 -157 0
-197 -192 0
-197 196 0
197 192 -196 0
-198 -195 0
-198 -197 0
198 195 197 0
-199 105 158 0
-199 -105 -158 0
199 -105 158 0
199 105 -158 0
-200 199 -198 0
-200 -199 198 0
200 -199 -198 0
200 199 198 0
-201 105 0
-201 158 0
201 -105 -158 0
-202 105 158 0
-202 -105 -158 0
202 -105 158 0
202 105 -158 0
-203 -198 0
-203 202 0
203 198 -202 0
-204 -201 0
-204 -203 0
204 201 203 0
-205 111 159 0
-205 -111 -159 0
205 -111 159 0
205 111 -159 0
-206 205 -204 0
-206 -205 204 0
206 -205 -204 0
206 205 204 0
-207 111 0
-207 159 0
207 -111 -159 0
-208 111 159 0
-208 -111 -159 0
208 -111 159 0
208 111 -159 0
-209 -204 0
-209 208 0
209 204 -208 0
-210 -207 0
-210 -209 0
210 207 209 0
-211 117 160 0
-211 -117 -160 0
211 -117 160 0
211 117 -160 0
-212 211 -210 0
-212 -211 210 0
212 -211 -210 0
212 211 210 0
-213 117 0
-213 160 0
213 -117 -160 0
-214 117 160 0
-214 -117 -160 0
214 -117 160 0
214 117 -160 0
-215 -210 0
-215 214 0
215 210 -214 0
-216 -213 0
-216 -215 0
216 213 215 0
-217 123 161 0
-217 -123 -161 0
217 -123 161 0
217 123 -161 0
-218 217 -216 0
-218 -217 216 0
218 -217 -216 0
218 217 216 0
-219 123 0
-219 161 0
219 -123 -161 0
-220 123 161 0
-220 -123 -161 0
220 -123 161 0
220 123 -161 0
-221 -216 0
-221 220 0
221 216 -220 0
-222 -219 0
-222 -221 0
222 219 221 0
-223 129 162 0
-223 -129 -162 0
223 -129 162 0
223 129 -162 0
-224 223 -222 0
-224 -223 222 0
224 -223 -222 0
224 223 222 0
-225 129 0
-225 162 0
225 -129 -162 0
-226 129 162 0
-226 -129 -162 0
226 -129 162 0
226 129 -162 0
-227 -222 0
-227 226 0
227 222 -226 0
-228 -225 0
-228 -227 0
228 225 227 0
-229 135 163 0
-229 -135 -163 0
229 -135 163 0
229 135 -163 0
-230 229 -228 0
-230 -229 228 0
230 -229 -228 0
230 229 228 0
-231 135 0
-231 163 0
231 -135 -163 0
-232 135 163 0
-232 -135 -163 0
232 -135 163 0
232 135 -163 0
-233 -228 0
-233 232 0
233 228 -232 0
-234 -231 0
-234 -233 0
234 231 233 0
-235 141 164 0
-235 -141 -164 0
235 -141 164 0
235 141 -164 0
-236 235 -234 0
-236 -235 234 0
236 -235 -234 0
236 235 234 0
-237 141 0
-237 164 0
237 -141 -164 0
-238 141 164 0
-238 -141 -164 0
238 -141 164 0
238 141 -164 0
-239 -234 0
-239 238 0
239 234 -238 0
-240 -237 0
-240 -239 0
240 237 239 0
-241 147 165 0
-241 -147 -165 0
241 -147 165 0
241 147 -165 0
-242 241 -240 0
-242 -241 240 0
242 -241 -240 0
242 241 240 0
-243 147 0
-243 165 0
243 -147 -165 0
-244 147 165 0
-244 -147 -165 0
244 -147 165 0
244 147 -165 0
-245 -240 0
-245 244 0
245 240 -244 0
-246 -243 0
-246 -245 0
246 243 245 0
-247 2 0
-247 21 0
247 -2 -21 0
-248 3 0
-248 21 0
248 -3 -21 0
-249 4 0
-249 21 0
249 -4 -21 0
-250 5 0
-250 21 0
250 -5 -21 0
-251 6 0
-251 21 0
251 -6 -21 0
-252 7 0
-252 21 0
252 -7 -21 0
-253 8 0
-253 21 0
253 -8 -21 0
-254 9 0
-254 21 0
254 -9 -21 0
-255 10 0
-255 21 0
255 -10 -21 0
-256 11 0
-256 21 0
256 -11 -21 0
-257 12 0
-257 21 0
257 -12 -21 0
-258 13 0
-258 21 0
258 -13 -21 0
-259 14 0
-259 21 0
259 -14 -21 0
-260 170 247 0
-260 -170 -247 0
260 -170 247 0
260 170 -247 0
-261 170 0
-261 247 0
261 -170 -247 0
-262 170 247 0
-262 -170 -247 0
262 -170 247 0
262 170 -247 0
-263 176 248 0
-263 -176 -248 0
263 -176 248 0
263 176 -248 0
-264 263 261 0
-264 -263 -261 0
264 -263 261 0
264 263 -261 0
-265 176 0
-265 248 0
265 -176 -248 0
-266 176 248 0
-266 -176 -248 0
266 -176 248 0
266 176 -248 0
-267 261 0
-267 266 0
267 -261 -266 0
-268 -265 0
-268 -267 0
268 265 267 0
-269 182 249 0
-269 -182 -249 0
269 -182 249 0
269 182 -249 0
-270 269 -268 0
-270 -269 268 0
270 -269 -268 0
270 269 268 0
-271 182 0
-271 249 0
271 -182 -249 0
-272 182 249 0
-272 -182 -249 0
272 -182 249 0
272 182 -249 0
-273 -268 0
-273 272 0
273 268 -272 0
-274 -271 0
-274 -273 0
274 271 273 0
-275 188 250 0
-275 -188 -250 0
275 -188 250 0
275 188 -250 0
-276 275 -274 0
-276 -275 274 0
276 -275 -274 0
276 275 274 0
-277 188 0
-277 250 0
277 -188 -250 0
-278 188 250 0
-278 -188 -250 0
278 -188 250 0
278 188 -250 0
-279 -274 0
-279 278 0
279 274 -278 0
-280 -277 0
-280 -279 0
280 277 279 0
-281 194 251 0
-281 -194 -251 0
281 -194 251 0
281 194 -251 0
-282 281 -280 0
-282 -281 280 0
282 -281 -280 0
282 281 280 0
-283 194 0
-283 251 0
283 -194 -251 0
-284 194 251 0
-284 -194 -251 0
284 -194 251 0
284 194 -251 0
-285 -280 0
-285 284 0
285 280 -284 0
-286 -283 0
-286 -285 0
286 283 285 0
-287 200 252 0
-287 -200 -252 0
287 -200 252 0
287 200 -252 0
-288 287 -286 0
-288 -287 286 0
288 -287 -286 0
288 287 286 0
-289 200 0
-289 252 0
289 -200 -252 0
-290 200 252 0
-290 -200 -252 0
290 -200 252 0
290 200 -252 0
-291 -286 0
-291 290 0
291 286 -290 0
-292 -289 0
-292 -291 0
292 289 291 0
-293 206 253 0
-293 -206 -253 0
293 -206 253 0
293 206 -253 0
-294 293 -292 0
-294 -293 292 0
294 -293 -292 0
294 293 292 0
-295 206 0
-295 253 0
295 -206 -253 0
-296 206 253 0
-296 -206 -253 0
296 -206 253 0
296 206 -253 0
-297 -292 0
-297 296 0
297 292 -296 0
-298 -295 0
-298 -297 0
298 295 297 0
-299 212 254 0
-299 -212 -254 0
299 -212 254 0
299 212 -254 0
-300 299 -298 0
-300 -299 298 0
300 -299 -298 0
300 299 298 0
-301 212 0
-301 254 0
301 -212 -254 0
-302 212 254 0
-302 -212 -254 0
302 -212 254 0
302 212 -254 0
-303 -298 0
-303 302 0
303 298 -302 0
-304 -301 0
-304 -303 0
304 301 303 0
-305 218 255 0
-305 -218 -255 0
305 -218 255 0
305 218 -255 0
-306 305 -304 0
-306 -305 304 0
306 -305 -304 0
306 305 304 0
-307 218 0
-307 255 0
307 -218 -255 0
-308 218 255 0
-308 -218 -255 0
308 -218 255 0
308 218 -255 0
-309 -304 0
-309 308 0
309 304 -308 0
-310 -307 0
-310 -309 0
310 307 309 0
-311 224 256 0
-311 -224 -256 0
311 -224 256 0
311 224 -256 0
-312 311 -310 0
-312 -311 310 0
312 -311 -310 0
312 311 310 0
-313 224 0
-313 256 0
313 -224 -256 0
-314 224 256 0
-314 -224 -256 0
314 -224 256 0
314 224 -256 0
-315 -310 0
-315 314 0
315 310 -314 0
-316 -313 0
-316 -315 0
316 313 315 0
-317 230 257 0
-317 -230 -257 0
317 -230 257 0
317 230 -257 0
-318 317 -316 0
-318 -317 316 0
318 -317 -316 0
318 317 316 0
-319 230 0
-319 257 0
319 -230 -257 0
-320 230 257 0
-320 -230 -257 0
320 -230 257 0
320 230 -257 0
-321 -316 0
-321 320 0
321 316 -320 0
-322 -319 0
-322 -321 0
322 319 321 0
-323 236 258 0
-323 -236 -258 0
323 -236 258 0
323 236 -258 0
-324 323 -322 0
-324 -323 322 0
324 -323 -322 0
324 323 322 0
-325 236 0
-325 258 0
325 -236 -258 0
-326 236 258 0
-326 -236 -258 0
326 -236 258 0
326 236 -258 0
-327 -322 0
-327 326 0
327 322 -326 0
-328 -325 0
-328 -327 0
328 325 327 0
-329 242 259 0
-329 -242 -259 0
329 -242 259 0
329 242 -259 0
-330 329 -328 0
-330 -329 328 0
330 -329 -328 0
330 329 328 0
-331 242 0
-331 259 0
331 -242 -259 0
-332 242 259 0
-332 -242 -259 0
332 -242 259 0
332 242 -259 0
-333 -328 0
-333 332 0
333 328 -332 0
-334 -331 0
-334 -333 0
334 331 333 0
-335 2 0
-335 22 0
335 -2 -22 0
-336 3 0
-336 22 0
336 -3 -22 0
-337 4 0
-337 22 0
337 -4 -22 0
-338 5 0
-338 22 0
338 -5 -22 0
-339 6 0
-339 22 0
339 -6 -22 0
-340 7 0
-340 22 0
340 -7 -22 0
-341 8 0
-341 22 0
341 -8 -22 0
-342 9 0
-342 22 0
342 -9 -22 0
-343 10 0
-343 22 0
343 -10 -22 0
-344 11 0
-344 22 0
344 -11 -22 0
-345 12 0
-345 22 0
345 -12 -22 0
-346 13 0
-346 22 0
346 -13 -22 0
-347 264 335 0
-347 -264 -335 0
347 -264 335 0
347 264 -335 0
-348 264 0
-348 335 0
348 -264 -335 0
-349 264 335 0
-349 -264 -335 0
349 -264 335 0
349 264 -335 0
-350 270 336 0
-350 -270 -336 0
350 -270 336 0
350 270 -336 0
-351 350 348 0
-351 -350 -348 0
351 -350 348 0
351 350 -348 0
-352 270 0
-352 336 0
352 -270 -336 0
-353 270 336 0
-353 -270 -336 0
353 -270 336 0
353 270 -336 0
-354 348 0
-354 353 0
354 -348 -353 0
-355 -352 0
-355 -354 0
355 352 354 0
-356 276 337 0
-356 -276 -337 0
356 -276 337 0
356 276 -337 0
-357 356 -355 0
-357 -356 355 0
357 -356 -355 0
357 356 355 0
-358 276 0
-358 337 0
358 -276 -337 0
-359 276 337 0
-359 -276 -337 0
359 -276 337 0
359 276 -337 0
-360 -355 0
-360 359 0
360 355 -359 0
-361 -358 0
-361 -360 0
361 358 360 0
-362 282 338 0
-362 -282 -338 0
362 -282 338 0
362 282 -338 0
-363 362 -361 0
-363 -362 361 0
363 -362 -361 0
363 362 361 0
-364 282 0
-364 338 0
364 -282 -338 0
-365 282 338 0
-365 -282 -338 0
365 -282 338 0
365 282 -338 0
-366 -361 0
-366 365 0
366 361 -365 0
-367 -364 0
-367 -366 0
367 364 366 0
-368 288 339 0
-368 -288 -339 0
368 -288 339 0
368 288 -339 0
-369 368 -367 0
-369 -368 367 0
369 -368 -367 0
369 368 367 0
-370 288 0
-370 339 0
370 -288 -339 0
-371 288 339 0
-371 -288 -339 0
371 -288 339 0
371 288 -339 0
-372 -367 0
-372 371 0
372 367 -371 0
-373 -370 0
-373 -372 0
373 370 372 0
-374 294 340 0
-374 -294 -340 0
374 -294 340 0
374 294 -340 0
-375 374 -373 0
-375 -374 373 0
375 -374 -373 0
375 374 373 0
-376 294 0
-376 340 0
376 -294 -340 0
-377 294 340 0
-377 -294 -340 0
377 -294 340 0
377 294 -340 0
-378 -373 0
-378 377 0
378 373 -377 0
-379 -376 0
-379 -378 0
379 376 378 0
-380 300 341 0
-380 -300 -341 0
380 -300 341 0
380 300 -341 0
-381 380 -379 0
-381 -380 379 0
381 -380 -379 0
381 380 379 0
-382 300 0
-382 341 0
382 -300 -341 0
-383 300 341 0
-383 -300 -341 0
383 -300 341 0
383 300 -341 0
-384 -379 0
-384 383 0
384 379 -383 0
-385 -382 0
-385 -384 0
385 382 384 0
-386 306 342 0
-386 -306 -342 0
386 -306 342 0
386 306 -342 0
-387 386 -385 0
-387 -386 385 0
387 -386 -385 0
387 386 385 0
-388 306 0
-388 342 0
388 -306 -342 0
-389 306 342 0
-389 -306 -342 0
389 -306 342 0
389 306 -342 0
-390 -385 0
-390 389 0
390 385 -389 0
-391 -388 0
-391 -390 0
391 388 390 0
-392 312 343 0
-392 -312 -343 0
392 -312 343 0
392 312 -343 0
-393 392 -391 0
-393 -392 391 0
393 -392 -391 0
393 392 391 0
-394 312 0
-394 343 0
394 -312 -343 0
-395 312 343 0
-395 -312 -343 0
395 -312 343 0
395 312 -343 0
-396 -391 0
-396 395 0
396 391 -395 0
-397 -394 0
-397 -396 0
397 394 396 0
-398 318 344 0
-398 -318 -344 0
398 -318 344 0
398 318 -344 0
-399 398 -397 0
-399 -398 397 0
399 -398 -397 0
399 398 397 0
-400 318 0
-400 344 0
400 -318 -344 0
-401 318 344 0
-401 -318 -344 0
401 -318 344 0
401 318 -344 0
-402 -397 0
-402 401 0
402 397 -401 0
-403 -400 0
-403 -402 0
403 400 402 0
-404 324 345 0
-404 -324 -345 0
404 -324 345 0
404 324 -345 0
-405 404 -403 0
-405 -404 403 0
405 -404 -403 0
405 404 403 0
-406 324 0
-406 345 0
406 -324 -345 0
-407 324 345 0
-407 -324 -345 0
407 -324 345 0
407 324 -345 0
-408 -403 0
-408 407 0
408 403 -407 0
-409 -406 0
-409 -408 0
409 406 408 0
-410 330 346 0
-410 -330 -346 0
410 -330 346 0
410 330 -346 0
-411 410 -409 0
-411 -410 409 0
411 -410 -409 0
411 410 409 0
-412 330 0
-412 346 0
412 -330 -346 0
-413 330 346 0
-413 -330 -346 0
413 -330 346 0
413 330 -346 0
-414 -409 0
-414 413 0
414 409 -413 0
-415 -412 0
-415 -414 0
415 412 414 0
-416 2 0
-416 23 0
416 -2 -23 0
-417 3 0
-417 23 0
417 -3 -23 0
-418 4 0
-418 23 0
418 -4 -23 0
-419 5 0
-419 23 0
419 -5 -23 0
-420 6 0
-420 23 0
420 -6 -23 0
-421 7 0
-421 23 0
421 -7 -23 0
-422 8 0
-422 23 0
422 -8 -23 0
-423 9 0
-423 23 0
423 -9 -23 0
-424 10 0
-424 23 0
424 -10 -23 0
-425 11 0
-425 23 0
425 -11 -23 0
-426 12 0
-426 23 0
426 -12 -23 0
-427 351 416 0
-427 -351 -416 0
427 -351 416 0
427 351 -416 0
-428 351 0
-428 416 0
428 -351 -416 0
-429 351 416 0
-429 -351 -416 0
429 -351 416 0
429 351 -416 0
-430 357 417 0
-430 -357 -417 0
430 -357 417 0
430 357 -417 0
-431 430 428 0
-431 -430 -428 0
431 -430 428 0
431 430 -428 0
-432 357 0
-432 417 0
432 -357 -417 0
-433 357 417 0
-433 -357 -417 0
433 -357 417 0
433 357 -417 0
-434 428 0
-434 433 0
434 -428 -433 0
-435 -432 0
-435 -434 0
435 432 434 0
-436 363 418 0
-436 -363 -418 0
436 -363 418 0
436 363 -418 0
-437 436 -435 0
-437 -436 435 0
437 -436 -435 0
437 436 435 0
-438 363 0
-438 418 0
438 -363 -418 0
-439 363 418 0
-439 -363 -418 0
439 -363 418 0
439 363 -418 0
-440 -435 0
-440 439 0
440 435 -439 0
-441 -438 0
-441 -440 0
441 438 440 0
-442 369 419 0
-442 -369 -419 0
442 -369 419 0
442 369 -419 0
-443 442 -441 0
-443 -442 441 0
443 -442 -441 0
443 442 441 0
-444 369 0
-444 419 0
444 -369 -419 0
-445 369 419 0
-445 -369 -419 0
445 -369 419 0
445 369 -419 0
-446 -441 0
-446 445 0
446 441 -445 0
-447 -444 0
-447 -446 0
447 444 446 0
-448 375 420 0
-448 -375 -420 0
448 -375 420 0
448 375 -420 0
-449 448 -447 0
-449 -448 447 0
449 -448 -447 0
449 448 447 0
-450 375 0
-450 420 0
450 -375 -420 0
-451 375 420 0
-451 -375 -420 0
451 -375 420 0
451 375 -420 0
-452 -447 0
-452 451 0
452 447 -451 0
-453 -450 0
-453 -452 0
453 450 452 0
-454 381 421 0
-454 -381 -421 0
454 -381 421 0
454 381 -421 0
-455 454 -453 0
-455 -454 453 0
455 -454 -453 0
455 454 453 0
-456 381 0
-456 421 0
456 -381 -421 0
-457 381 421 0
-457 -381 -421 0
457 -381 421 0
457 381 -421 0
-458 -453 0
-458 457 0
458 453 -457 0
-459 -456 0
-459 -458 0
459 456 458 0
-460 387 422 0
-460 -387 -422 0
460 -387 422 0
460 387 -422 0
-461 460 -459 0
-461 -460 459 0
461 -460 -459 0
461 460 459 0
-462 387 0
-462 422 0
462 -387 -422 0
-463 387 422 0
-463 -387 -422 0
463 -387 422 0
463 387 -422 0
-464 -459 0
-464 463 0
464 459 -463 0
-465 -462 0
-465 -464 0
465 462 464 0
-466 393 423 0
-466 -393 -423 0
466 -393 423 0
466 393 -423 0
-467 466 -465 0
-467 -466 465 0
467 -466 -465 0
467 466 465 0
-468 393 0
-468 423 0
468 -393 -423 0
-469 393 423 0
-469 -393 -423 0
469 -393 423 0
469 393 -423 0
-470 -465 0
-470 469 0
470 465 -469 0
-471 -468 0
-471 -470 0
471 468 470 0
-472 399 424 0
-472 -399 -424 0
472 -399 424 0
472 399 -424 0
-473 472 -471 0
-473 -472 471 0
473 -472 -471 0
473 472 471 0
-474 399 0
-474 424 0
474 -399 -424 0
-475 399 424 0
-475 -399 -424 0
475 -399 424 0
475 399 -424 0
-476 -471 0
-476 475 0
476 471 -475 0
-477 -474 0
-477 -476 0
477 474 476 0
-478 405 425 0
-478 -405 -425 0
478 -405 425 0
478 405 -425 0
-479 478 -477 0
-479 -478 477 0
479 -478 -477 0
479 478 477 0
-480 405 0
-480 425 0
480 -405 -425 0
-481 405 425 0
-481 -405 -425 0
481 -405 425 0
481 405 -425 0
-482 -477 0
-482 481 0
482 477 -481 0
-483 -480 0
-483 -482 0
483 480 482 0
-484 411 426 0
-484 -411 -426 0
484 -411 426 0
484 411 -426 0
-485 484 -483 0
-485 -484 483 0
485 -484 -483 0
485 484 483 0
-486 411 0
-486 426 0
486 -411 -426 0
-487 411 426 0
-487 -411 -426 0
487 -411 426 0
487 411 -426 0
-488 -483 0
-488 487 0
488 483 -487 0
-489 -486 0
-489 -488 0
489 486 488 0
-490 2 0
-490 24 0
490 -2 -24 0
-491 3 0
-491 24 0
491 -3 -24 0
-492 4 0
-492 24 0
492 -4 -24 0
-493 5 0
-493 24 0
493 -5 -24 0
-494 6 0
-494 24 0
494 -6 -24 0
-495 7 0
-495 24 0
495 -7 -24 0
-496 8 0
-496 24 0
496 -8 -24 0
-497 9 0
-497 24 0
497 -9 -24 0
-498 10 0
-498 24 0
498 -10 -24 0
-499 11 0
-499 24 0
499 -11 -24 0
-500 431 490 0
-500 -431 -490 0
500 -431 490 0
500 431 -490 0
-501 431 0
-501 490 0
501 -431 -490 0
-502 431 490 0
-502 -431 -490 0
502 -431 490 0
502 431 -490 0
-503 437 491 0
-503 -437 -491 0
503 -437 491 0
503 437 -491 0
-504 503 501 0
-504 -503 -501 0
504 -503 501 0
504 503 -501 0
-505 437 0
-505 491 0
505 -437 -491 0
-506 437 491 0
-506 -437 -491 0
506 -437 491 0
506 437 -491 0
-507 501 0
-507 506 0
507 -501 -506 0
-508 -505 0
-508 -507 0
508 505 507 0
-509 443 492 0
-509 -443 -492 0
509 -443 492 0
509 443 -492 0
-510 509 -508 0
-510 -509 508 0
510 -509 -508 0
510 509 508 0
-511 443 0
-511 492 0
511 -443 -492 0
-512 443 492 0
-512 -443 -492 0
512 -443 492 0
512 443 -492 0
-513 -508 0
-513 512 0
513 508 -512 0
-514 -511 0
-514 -513 0
514 511 513 0
-515 449 493 0
-515 -449 -493 0
515 -449 493 0
515 449 -493 0
-516 515 -514 0
-516 -515 514 0
516 -515 -514 0
516 515 514 0
-517 449 0
-517 493 0
517 -449 -493 0
-518 449 493 0
-518 -449 -493 0
518 -449 493 0
518 449 -493 0
-519 -514 0
-519 518 0
519 514 -518 0
-520 -517 0
-520 -519 0
520 517 519 0
-521 455 494 0
-521 -455 -494 0
521 -455 494 0
521 455 -494 0
-522 521 -520 0
-522 -521 520 0
522 -521 -520 0
522 521 520 0
-523 455 0
-523 494 0
523 -455 -494 0
-524 455 494 0
-524 -455 -494 0
524 -455 494 0
524 455 -494 0
-525 -520 0
-525 524 0
525 520 -524 0
-526 -523 0
-526 -525 0
526 523 525 0
-527 461 495 0
-527 -461 -495 0
527 -461 495 0
527 461 -495 0
-528 527 -526 0
-528 -527 526 0
528 -527 -526 0
528 527 526 0
-529 461 0
-529 495 0
529 -461 -495 0
-530 461 495 0
-530 -461 -495 0
530 -461 495 0
530 461 -495 0
-531 -526 0
-531 530 0
531 526 -530 0
-532 -529 0
-532 -531 0
532 529 531 0
-533 467 496 0
-533 -467 -496 0
533 -467 496 0
533 467 -496 0
-534 533 -532 0
-534 -533 532 0
534 -533 -532 0
534 533 532 0
-535 467 0
-535 496 0
535 -467 -496 0
-536 467 496 0
-536 -467 -496 0
536 -467 496 0
536 467 -496 0
-537 -532 0
-537 536 0
537 532 -536 0
-538 -535 0
-538 -537 0
538 535 537 0
-539 473 497 0
-539 -473 -497 0
539 -473 497 0
539 473 -497 0
-540 539 -538 0
-540 -539 538 0
540 -539 -538 0
540 539 538 0
-541 473 0
-541 497 0
541 -473 -497 0
-542 473 497 0
-542 -473 -497 0
542 -473 497 0
542 473 -497 0
-543 -538 0
-543 542 0
543 538 -542 0
-544 -541 0
-544 -543 0
544 541 543 0
-545 479 498 0
-545 -479 -498 0
545 -479 498 0
545 479 -498 0
-546 545 -544 0
-546 -545 544 0
546 -545 -544 0
546 545 544 0
-547 479 0
-547 498 0
547 -479 -498 0
-548 479 498 0
-548 -479 -498 0
548 -479 498 0
548 479 -498 0
-549 -544 0
-549 548 0
549 544 -548 0
-550 -547 0
-550 -549 0
550 547 549 0
-551 485 499 0
-551 -485 -499 0
551 -485 499 0
551 485 -499 0
-552 551 -550 0
-552 -551 550 0
552 -551 -550 0
552 551 550 0
-553 485 0
-553 499 0
553 -485 -499 0
-554 485 499 0
-554 -485 -499 0
554 -485 499 0
554 485 -499 0
-555 -550 0
-555 554 0
555 550 -554 0
-556 -553 0
-556 -555 0
556 553 555 0
-557 2 0
-557 25 0
557 -2 -25 0
-558 3 0
-558 25 0
558 -3 -25 0
-559 4 0
-559 25 0
559 -4 -25 0
-560 5 0
-560 25 0
560 -5 -25 0
-561 6 0
-561 25 0
561 -6 -25 0
-562 7 0
-562 25 0
562 -7 -25 0
-563 8 0
-563 25 0
563 -8 -25 0
-564 9 0
-564 25 0
564 -9 -25 0
-565 10 0
-565 25 0
565 -10 -25 0
-566 504 557 0
-566 -504 -557 0
566 -504 557 0
566 504 -557 0
-567 504 0
-567 557 0
567 -504 -557 0
-568 504 557 0
-568 -504 -557 0
568 -504 557 0
568 504 -557 0
-569 510 558 0
-569 -510 -558 0
569 -510 558 0
569 510 -558 0
-570 569 567 0
-570 -569 -567 0
570 -569 567 0
570 569 -567 0
-571 510 0
-571 558 0
571 -510 -558 0
-572 510 558 0
-572 -510 -558 0
572 -510 558 0
572 510 -558 0
-573 567 0
-573 572 0
573 -567 -572 0
-574 -571 0
-574 -573 0
574 571 573 0
-575 516 559 0
-575 -516 -559 0
575 -516 559 0
575 516 -559 0
-576 575 -574 0
-576 -575 574 0
576 -575 -574 0
576 575 574 0
-577 516 0
-577 559 0
577 -516 -559 0
-578 516 559 0
-578 -516 -559 0
578 -516 559 0
578 516 -559 0
-579 -574 0
-579 578 0
579 574 -578 0
-580 -577 0
-580 -579 0
580 577 579 0
-581 522 560 0
-581 -522 -560 0
581 -522 560 0
581 522 -560 0
-582 581 -580 0
-582 -581 580 0
582 -581 -580 0
582 581 580 0
-583 522 0
-583 560 0
583 -522 -560 0
-584 522 560 0
-584 -522 -560 0
584 -522 560 0
584 522 -560 0
-585 -580 0
-585 584 0
585 580 -584 0
-586 -583 0
-586 -585 0
586 583 585 0
-587 528 561 0
-587 -528 -561 0
587 -528 561 0
587 528 -561 0
-588 587 -586 0
-588 -587 586 0
588 -587 -586 0
588 587 586 0
-589 528 0
-589 561 0
589 -528 -561 0
-590 528 561 0
-590 -528 -561 0
590 -528 561 0
590 528 -561 0
-591 -586 0
-591 590 0
591 586 -590 0
-592 -589 0
-592 -591 0
592 589 591 0
-593 534 562 0
-593 -534 -562 0
593 -534 562 0
593 534 -562 0
-594 593 -592 0
-594 -593 592 0
594 -593 -592 0
594 593 592 0
-595 534 0
-595 562 0
595 -534 -562 0
-596 534 562 0
-596 -534 -562 0
596 -534 562 0
596 534 -562 0
-597 -592 0
-597 596 0
597 592 -596 0
-598 -595 0
-598 -597 0
598 595 597 0
-599 540 563 0
-599 -540 -563 0
599 -540 563 0
599 540 -563 0
-600 599 -598 0
-600 -599 598 0
600 -599 -598 0
600 599 598 0
-601 540 0
-601 563 0
601 -540 -563 0
-602 540 563 0
-602 -540 -563 0
602 -540 563 0
602 540 -563 0
-603 -598 0
-603 602 0
603 598 -602 0
-604 -601 0
-604 -603 0
604 601 603 0
-605 546 564 0
-605 -546 -564 0
605 -546 564 0
605 546 -564 0
-606 605 -604 0
-606 -605 604 0
606 -605 -604 0
606 605 604 0
-607 546 0
-607 564 0
607 -546 -564 0
-608 546 564 0
-608 -546 -564 0
608 -546 564 0
608 546 -564 0
-609 -604 0
-609 608 0
609 604 -608 0
-610 -607 0
-610 -609 0
610 607 609 0
-611 552 565 0
-611 -552 -565 0
611 -552 565 0
611 552 -565 0
-612 611 -610 0
-612 -611 610 0
612 -611 -610 0
612 611 610 0
-613 552 0
-613 565 0
613 -552 -565 0
-614 552 565 0
-614 -552 -565 0
614 -552 565 0
614 552 -565 0
-615 -610 0
-615 614 0
615 610 -614 0
-616 -613 0
-616 -615 0
616 613 615 0
-617 2 0
-617 26 0
617 -2 -26 0
-618 3 0
-618 26 0
618 -3 -26 0
-619 4 0
-619 26 0
619 -4 -26 0
-620 5 0
-620 26 0
620 -5 -26 0
-621 6 0
-621 26 0
621 -6 -26 0
-622 7 0
-622 26 0
622 -7 -26 0
-623 8 0
-623 26 0
623 -8 -26 0
-624 9 0
-624 26 0
624 -9 -26 0
-625 570 617 0
-625 -570 -617 0
625 -570 617 0
625 570 -617 0
-626 570 0
-626 617 0
626 -570 -617 0
-627 570 617 0
-627 -570 -617 0
627 -570 617 0
627 570 -617 0
-628 576 618 0
-628 -576 -618 0
628 -576 618 0
628 576 -618 0
-629 628 626 0
-629 -628 -626 0
629 -628 626 0
629 628 -626 0
-630 576 0
-630 618 0
630 -576 -618 0
-631 576 618 0
-631 -576 -618 0
631 -576 618 0
631 576 -618 0
-632 626 0
-632 631 0
632 -626 -631 0
-633 -630 0
-633 -632 0
633 630 632 0
-634 582 619 0
-634 -582 -619 0
634 -582 619 0
634 582 -619 0
-635 634 -633 0
-635 -634 633 0
635 -634 -633 0
635 634 633 0
-636 582 0
-636 619 0
636 -582 -619 0
-637 582 619 0
-637 -582 -619 0
637 -582 619 0
637 582 -619 0
-638 -633 0
-638 637 0
638 633 -637 0
-639 -636 0
-639 -638 0
639 636 638 0
-640 588 620 0
-640 -588 -620 0
640 -588 620 0
640 588 -620 0
-641 640 -639 0
-641 -640 639 0
641 -640 -639 0
641 640 639 0
-642 588 0
-642 620 0
642 -588 -620 0
-643 588 620 0
-643 -588 -620 0
643 -588 620 0
643 588 -620 0
-644 -639 0
-644 643 0
644 639 -643 0
-645 -642 0
-645 -644 0
645 642 644 0
-646 594 621 0
-646 -594 -621 0
646 -594 621 0
646 594 -621 0
-647 646 -645 0
-647 -646 645 0
647 -646 -645 0
647 646 645 0
-648 594 0
-648 621 0
648 -594 -621 0
-649 594 621 0
-649 -594 -621 0
649 -594 621 0
649 594 -621 0
-650 -645 0
-650 649 0
650 645 -649 0
-651 -648 0
-651 -650 0
651 648 650 0
-652 600 622 0
-652 -600 -622 0
652 -600 622 0
652 600 -622 0
-653 652 -651 0
-653 -652 651 0
653 -652 -651 0
653 652 651 0
-654 600 0
-654 622 0
654 -600 -622 0
-655 600 622 0
-655 -600 -622 0
655 -600 622 0
655 600 -622 0
-656 -651 0
-656 655 0
656 651 -655 0
-657 -654 0
-657 -656 0
657 654 656 0
-658 606 623 0
-658 -606 -623 0
658 -606 623 0
658 606 -623 0
-659 658 -657 0
-659 -658 657 0
659 -658 -657 0
659 658 657 0
-660 606 0
-660 623 0
660 -606 -623 0
-661 606 623 0
-661 -606 -623 0
661 -606 623 0
661 606 -623 0
-662 -657 0
-662 661 0
662 657 -661 0
-663 -660 0
-663 -662 0
663 660 662 0
-664 612 624 0
-664 -612 -624 0
664 -612 624 0
664 612 -624 0
-665 664 -663 0
-665 -664 663 0
665 -664 -663 0
665 664 663 0
-666 612 0
-666 624 0
666 -612 -624 0
-667 612 624 0
-667 -612 -624 0
667 -612 624 0
667 612 -624 0
-668 -663 0
-668 667 0
668 663 -667 0
-669 -666 0
-669 -668 0
669 666 668 0
-670 2 0
-670 27 0
670 -2 -27 0
-671 3 0
-671 27 0
671 -3 -27 0
-672 4 0
-672 27 0
672 -4 -27 0
-673 5 0
-673 27 0
673 -5 -27 0
-674 6 0
-674 27 0
674 -6 -27 0
-675 7 0
-675 27 0
675 -7 -27 0
-676 8 0
-676 27 0
676 -8 -27 0
-677 629 670 0
-677 -629 -670 0
677 -629 670 0
677 629 -670 0
-678 629 0
-678 670 0
678 -629 -670 0
-679 629 670 0
-679 -629 -670 0
679 -629 670 0
679 629 -670 0
-680 635 671 0
-680 -635 -671 0
680 -635 671 0
680 635 -671 0
-681 680 678 0
-681 -680 -678 0
681 -680 678 0
681 680 -678 0
-682 635 0
-682 671 0
682 -635 -671 0
-683 635 671 0
-683 -635 -671 0
683 -635 671 0
683 635 -671 0
-684 678 0
-684 683 0
684 -678 -683 0
-685 -682 0
-685 -684 0
685 682 684 0
-686 641 672 0
-686 -641 -672 0
686 -641 672 0
686 641 -672 0
-687 686 -685 0
-687 -686 685 0
687 -686 -685 0
687 686 685 0
-688 641 0
-688 672 0
688 -641 -672 0
-689 641 672 0
-689 -641 -672 0
689 -641 672 0
689 641 -672 0
-690 -685 0
-690 689 0
690 685 -689 0
-691 -688 0
-691 -690 0
691 688 690 0
-692 647 673 0
-692 -647 -673 0
692 -647 673 0
692 647 -673 0
-693 692 -691 0
-693 -692 691 0
693 -692 -691 0
693 692 691 0
-694 647 0
-694 673 0
694 -647 -673 0
-695 647 673 0
-695 -647 -673 0
695 -647 673 0
695 647 -673 0
-696 -691 0
-696 695 0
696 691 -695 0
-697 -694 0
-697 -696 0
697 694 696 0
-698 653 674 0
-698 -653 -674 0
698 -653 674 0
698 653 -674 0
-699 698 -697 0
-699 -698 697 0
699 -698 -697 0
699 698 697 0
-700 653 0
-700 674 0
700 -653 -674 0
-701 653 674 0
-701 -653 -674 0
701 -653 674 0
701 653 -674 0
-702 -697 0
-702 701 0
702 697 -701 0
-703 -700 0
-703 -702 0
703 700 702 0
-704 659 675 0
-704 -659 -675 0
704 -659 675 0
704 659 -675 0
-705 704 -703 0
-705 -704 703 0
705 -704 -703 0
705 704 703 0
-706 659 0
-706 675 0
706 -659 -675 0
-707 659 675 0
-707 -659 -675 0
707 -659 675 0
707 659 -675 0
-708 -703 0
-708 707 0
708 703 -707 0
-709 -706 0
-709 -708 0
709 706 708 0
-710 665 676 0
-710 -665 -676 0
710 -665 676 0
710 665 -676 0
-711 710 -709 0
-711 -710 709 0
711 -710 -709 0
711 710 709 0
-712 665 0
-712 676 0
712 -665 -676 0
-713 665 676 0
-713 -665 -676 0
713 -665 676 0
713 665 -676 0
-714 -709 0
-714 713 0
714 709 -713 0
-715 -712 0
-715 -714 0
715 712 714 0
-716 2 0
-716 28 0
716 -2 -28 0
-717 3 0
-717 28 0
717 -3 -28 0
-718 4 0
-718 28 0
718 -4 -28 0
-719 5 0
-719 28 0
719 -5 -28 0
-720 6 0
-720 28 0
720 -6 -28 0
-721 7 0
-721 28 0
721 -7 -28 0
-722 681 716 0
-722 -681 -716 0
722 -681 716 0
722 681 -716 0
-723 681 0
-723 716 0
723 -681 -716 0
-724 681 716 0
-724 -681 -716 0
724 -681 716 0
724 681 -716 0
-725 687 717 0
-725 -687 -717 0
725 -687 717 0
725 687 -717 0
-726 725 723 0
-726 -725 -723 0
726 -725 723 0
726 725 -723 0
-727 687 0
-727 717 0
727 -687 -717 0
-728 687 717 0
-728 -687 -717 0
728 -687 717 0
728 687 -717 0
-729 723 0
-729 728 0
729 -723 -728 0
-730 -727 0
-730 -729 0
730 727 729 0
-731 693 718 0
-731 -693 -718 0
731 -693 718 0
731 693 -718 0
-732 731 -730 0
-732 -731 730 0
732 -731 -730 0
732 731 730 0
-733 693 0
-733 718 0
733 -693 -718 0
-734 693 718 0
-734 -693 -718 0
734 -693 718 0
734 693 -718 0
-735 -730 0
-735 734 0
735 730 -734 0
-736 -733 0
-736 -735 0
736 733 735 0
-737 699 719 0
-737 -699 -719 0
737 -699 719 0
737 699 -719 0
-738 737 -736 0
-738 -737 736 0
738 -737 -736 0
738 737 736 0
-739 699 0
-739 719 0
739 -699 -719 0
-740 699 719 0
-740 -699 -719 0
740 -699 719 0
740 699 -719 0
-741 -736 0
-741 740 0
741 736 -740 0
-742 -739 0
-742 -741 0
742 739 741 0
-743 705 720 0
-743 -705 -720 0
743 -705 720 0
743 705 -720 0
-744 743 -742 0
-744 -743 742 0
744 -743 -742 0
744 743 742 0
-745 705 0
-745 720 0
745 -705 -720 0
-746 705 720 0
-746 -705 -720 0
746 -705 720 0
746 705 -720 0
-747 -742 0
-747 746 0
747 742 -746 0
-748 -745 0
-748 -747 0
748 745 747 0
-749 711 721 0
-749 -711 -721 0
749 -711 721 0
749 711 -721 0
-750 749 -748 0
-750 -749 748 0
750 -749 -748 0
750 749 748 0
-751 711 0
-751 721 0
751 -711 -721 0
-752 711 721 0
-752 -711 -721 0
752 -711 721 0
752 711 -721 0
-753 -748 0
-753 752 0
753 748 -752 0
-754 -751 0
-754 -753 0
754 751 753 0
-755 2 0
-755 29 0
755 -2 -29 0
-756 3 0
-756 29 0
756 -3 -29 0
-757 4 0
-757 29 0
757 -4 -29 0
-758 5 0
-758 29 0
758 -5 -29 0
-759 6 0
-759 29 0
759 -6 -29 0
-760 726 755 0
-760 -726 -755 0
760 -726 755 0
760 726 -755 0
-761 726 0
-761 755 0
761 -726 -755 0
-762 726 755 0
-762 -726 -755 0
762 -726 755 0
762 726 -755 0
-763 732 756 0
-763 -732 -756 0
763 -732 756 0
763 732 -756 0
-764 763 761 0
-764 -763 -761 0
764 -763 761 0
764 763 -761 0
-765 732 0
-765 756 0
765 -732 -756 0
-766 732 756 0
-766 -732 -756 0
766 -732 756 0
766 732 -756 0
-767 761 0
-767 766 0
767 -761 -766 0
-768 -765 0
-768 -767 0
768 765 767 0
-769 738 757 0
-769 -738 -757 0
769 -738 757 0
769 738 -757 0
-770 769 -768 0
-770 -769 768 0
770 -769 -768 0
770 769 768 0
-771 738 0
-771 757 0
771 -738 -757 0
-772 738 757 0
-772 -738 -757 0
772 -738 757 0
772 738 -757 0
-773 -768 0
-773 772 0
773 768 -772 0
-774 -771 0
-774 -773 0
774 771 773 0
-775 744 758 0
-775 -744 -758 0
775 -744 758 0
775 744 -758 0
-776 775 -774 0
-776 -775 774 0
776 -775 -774 0
776 775 774 0
-777 744 0
-777 758 0
777 -744 -758 0
-778 744 758 0
-778 -744 -758 0
778 -744 758 0
778 744 -758 0
-779 -774 0
-779 778 0
779 774 -778 0
-780 -777 0
-780 -779 0
780 777 779 0
-781 750 759 0
-781 -750 -759 0
781 -750 759 0
781 750 -759 0
-782 781 -780 0
-782 -781 780 0
782 -781 -780 0
782 781 780 0
-783 750 0
-783 759 0
783 -750 -759 0
-784 750 759 0
-784 -750 -759 0
784 -750 759 0
784 750 -759 0
-785 -780 0
-785 784 0
785 780 -784 0
-786 -783 0
-786 -785 0
786 783 785 0
-787 2 0
-787 30 0
787 -2 -30 0
-788 3 0
-788 30 0
788 -3 -30 0
-789 4 0
-789 30 0
789 -4 -30 0
-790 5 0
-790 30 0
790 -5 -30 0
-791 764 787 0
-791 -764 -787 0
791 -764 787 0
791 764 -787 0
-792 764 0
-792 787 0
792 -764 -787 0
-793 764 787 0
-793 -764 -787 0
793 -764 787 0
793 764 -787 0
-794 770 788 0
-794 -770 -788 0
794 -770 788 0
794 770 -788 0
-795 794 792 0
-795 -794 -792 0
795 -794 792 0
795 794 -792 0
-796 770 0
-796 788 0
796 -770 -788 0
-797 770 788 0
-797 -770 -788 0
797 -770 788 0
797 770 -788 0
-798 792 0
-798 797 0
798 -792 -797 0
-799 -796 0
-799 -798 0
799 796 798 0
-800 776 789 0
-800 -776 -789 0
800 -776 789 0
800 776 -789 0
-801 800 -799 0
-801 -800 799 0
801 -800 -799 0
801 800 799 0
-802 776 0
-802 789 0
802 -776 -789 0
-803 776 789 0
-803 -776 -789 0
803 -776 789 0
803 776 -789 0
-804 -799 0
-804 803 0
804 799 -803 0
-805 -802 0
-805 -804 0
805 802 804 0
-806 782 790 0
-806 -782 -790 0
806 -782 790 0
806 782 -790 0
-807 806 -805 0
-807 -806 805 0
807 -806 -805 0
807 806 805 0
-808 782 0
-808 790 0
808 -782 -790 0
-809 782 790 0
-809 -782 -790 0
809 -782 790 0
809 782 -790 0
-810 -805 0
-810 809 0
810 805 -809 0
-811 -808 0
-811 -810 0
811 808 810 0
-812 2 0
-812 31 0
812 -2 -31 0
-813 3 0
-813 31 0
813 -3 -31 0
-814 4 0
-814 31 0
814 -4 -31 0
-815 795 812 0
-815 -795 -812 0
815 -795 812 0
815 795 -812 0
-816 795 0
-816 812 0
816 -795 -812 0
-817 795 812 0
-817 -795 -812 0
817 -795 812 0
817 795 -812 0
-818 801 813 0
-818 -801 -813 0
818 -801 813 0
818 801 -813 0
-819 818 816 0
-819 -818 -816 0
819 -818 816 0
819 818 -816 0
-820 801 0
-820 813 0
820 -801 -813 0
-821 801 813 0
-821 -801 -813 0
821 -801 813 0
821 801 -813 0
-822 816 0
-822 821 0
822 -816 -821 0
-823 -820 0
-823 -822 0
823 820 822 0
-824 807 814 0
-824 -807 -814 0
824 -807 814 0
824 807 -814 0
-825 824 -823 0
-825 -824 823 0
825 -824 -823 0
825 824 823 0
-826 807 0
-826 814 0
826 -807 -814 0
-827 807 814 0
-827 -807 -814 0
827 -807 814 0
827 807 -814 0
-828 -823 0
-828 827 0
828 823 -827 0
-829 -826 0
-829 -828 0
829 826 828 0
-830 2 0
-830 32 0
830 -2 -32 0
-831 3 0
-831 32 0
831 -3 -32 0
-832 819 830 0
-832 -819 -830 0
832 -819 830 0
832 819 -830 0
-833 819 0
-833 830 0
833 -819 -830 0
-834 819 830 0
-834 -819 -830 0
834 -819 830 0
834 819 -830 0
-835 825 831 0
-835 -825 -831 0
835 -825 831 0
835 825 -831 0
-836 835 833 0
-836 -835 -833 0
836 -835 833 0
836 835 -833 0
-837 825 0
-837 831 0
837 -825 -831 0
-838 825 831 0
-838 -825 -831 0
838 -825 831 0
838 825 -831 0
-839 833 0
-839 838 0
839 -833 -838 0
-840 -837 0
-840 -839 0
840 837 839 0
-841 2 0
-841 33 0
841 -2 -33 0
-842 836 841 0
-842 -836 -841 0
842 -836 841 0
842 836 -841 0
-843 836 0
-843 841 0
843 -836 -841 0
-844 836 841 0
-844 -836 -841 0
844 -836 841 0
844 836 -841 0
-34 1 0
34 -1 0
-65 1 0
65 -1 0
-166 -1 0
166 1 0
-260 1 0
260 -1 0
-347 -1 0
347 1 0
-427 -1 0
427 1 0
-500 1 0
500 -1 0
-566 -1 0
566 1 0
-625 -1 0
625 1 0
-677 -1 0
677 1 0
-722 1 0
722 -1 0
-760 1 0
760 -1 0
-791 -1 0
791 1 0
-815 1 0
815 -1 0
-832 1 0
832 -1 0
-842 1 0
842 -1 0
3 4 5 6 7 8 9 10 11 12 13 14 15 16 17 0
19 20 21 22 23 24 25 26 27 28 29 30 31 32 33 0
