p cnf 211 682
1 0
-14 2 0
-14 8 0
14 -2 -8 0
-15 3 0
-15 8 0
15 -3 -8 0
-16 4 0
-16 8 0
16 -4 -8 0
-17 5 0
-17 8 0
17 -5 -8 0
-18 6 0
-18 8 0
18 -6 -8 0
-19 7 0
-19 8 0
19 -7 -8 0
-20 2 0
-20 9 0
20 -2 -9 0
-21 3 0
-21 9 0
21 -3 -9 0
-22 4 0
-22 9 0
22 -4 -9 0
-23 5 0
-23 9 0
23 -5 -9 0
-24 6 0
-24 9 0
24 -6 -9 0
-25 15 20 0
-25 -15 -20 0
25 -15 20 0
25 15 -20 0
-26 15 0
-26 20 0
26 -15 -20 0
-27 15 20 0
-27 -15 -20 0
27 -15 20 0
27 15 -20 0
-28 16 21 0
-28 -16 -21 0
28 -16 21 0
28 16 -21 0
-29 28 26 0
-29 -28 -26 0
29 -28 26 0
29 28 -26 0
-30 16 0
-30 21 0
30 -16 -21 0
-31 16 21 0
-31 -16 -21 0
31 -16 21 0
31 16 -21 0
-32 26 0
-32 31 0
32 -26 -31 0
-33 -30 0
-33 -32 0
33 30 32 0
-34 17 22 0
-34 -17 -22 0
34 -17 22 0
34 17 -22 0
-35 34 -33 0
-35 -34 33 0
35 -34 -33 0
35 34 33 0
-36 17 0
-36 22 0
36 -17 -22 0
-37 17 22 0
-37 -17 -22 0
37 -17 22 0
37 17 -22 0
-38 -33 0
-38 37 0
38 33 -37 0
-39 -36 0
-39 -38 0
39 36 38 0
-40 18 23 0
-40 -18 -23 0
40 -18 23 0
40 18 -23 0
-41 40 -39 0
-41 -40 39 0
41 -40 -39 0
41 40 39 0
-42 18 0
-42 23 0
42 -18 -23 0
-43 18 23 0
-43 -18 -23 0
43 -18 23 0
43 18 -23 0
-44 -39 0
-44 43 0
44 39 -43 0
-45 -42 0
-45 -44 0
45 42 44 0
-46 19 24 0
-46 -19 -24 0
46 -19 24 0
46 19 -24 0
-47 46 -45 0
-47 -46 45 0
47 -46 -45 0
47 46 45 0
-48 19 0
-48 24 0
48 -19 -24 0
-49 19 24 0
-49 -19 -24 0
49 -19 24 0
49 19 -24 0
-50 -45 0
-50 49 0
50 45 -49 0
-51 -48 0
-51 -50 0
51 48 50 0
-52 2 0
-52 10 0
52 -2 -10 0
-53 3 0
-53 10 0
53 -3 -10 0
-54 4 0
-54 10 0
54 -4 -10 0
-55 5 0
-55 10 0
55 -5 -10 0
-56 29 52 0
-56 -29 -52 0
56 -29 52 0
56 29 -52 0
-57 29 0
-57 52 0
57 -29 -52 0
-58 29 52 0
-58 -29 -52 0
58 -29 52 0
58 29 -52 0
-59 35 53 0
-59 -35 -53 0
59 -35 53 0
59 35 -53 0
-60 59 57 0
-60 -59 -57 0
60 -59 57 0
60 59 -57 0
-61 35 0
-61 53 0
61 -35 -53 0
-62 35 53 0
-62 -35 -53 0
62 -35 53 0
62 35 -53 0
-63 57 0
-63 62 0
63 -57 -62 0
-64 -61 0
-64 -63 0
64 61 63 0
-65 41 54 0
-65 -41 -54 0
65 -41 54 0
65 41 -54 0
-66 65 -64 0
-66 -65 64 0
66 -65 -64 0
66 65 64 0
-67 41 0
-67 54 0
67 -41 -54 0
-68 41 54 0
-68 -41 -54 0
68 -41 54 0
68 41 -54 0
-69 -64 0
-69 68 0
69 64 -68 0
-70 -67 0
-70 -69 0
70 67 69 0
-71 47 55 0
-71 -47 -55 0
71 -47 55 0
71 47 -55 0
-72 71 -70 0
-72 -71 70 0
72 -71 -70 0
72 71 70 0
-73 47 0
-73 55 0
73 -47 -55 0
-74 47 55 0
-74 -47 -55 0
74 -47 55 0
74 47 -55 0
-75 -70 0
-75 74 0
75 70 -74 0
-76 -73 0
-76 -75 0
76 73 75 0
-77 2 0
-77 11 0
77 -2 -11 0
-78 3 0
-78 11 0
78 -3 -11 0
-79 4 0
-79 11 0
79 -4 -11 0
-80 60 77 0
-80 -60 -77 0
80 -60 77 0
80 60 -77 0
-81 60 0
-81 77 0
81 -60 -77 0
-82 60 77 0
-82 -60 -77 0
82 -60 77 0
82 60 -77 0
-83 66 78 0
-83 -66 -78 0
83 -66 78 0
83 66 -78 0
-84 83 81 0
-84 -83 -81 0
84 -83 81 0
84 83 -81 0
-85 66 0
-85 78 0
85 -66 -78 0
-86 66 78 0
-86 -66 -78 0
86 -66 78 0
86 66 -78 0
-87 81 0
-87 86 0
87 -81 -86 0
-88 -85 0
-88 -87 0
88 85 87 0
-89 72 79 0
-89 -72 -79 0
89 -72 79 0
89 72 -79 0
-90 89 -88 0
-90 -89 88 0
90 -89 -88 0
90 89 88 0
-91 72 0
-91 79 0
91 -72 -79 0
-92 72 79 0
-92 -72 -79 0
92 -72 79 0
92 72 -79 0
-93 -88 0
-93 92 0
93 88 -92 0
-94 -91 0
-94 -93 0
94 91 93 0
-95 2 0
-95 12 0
95 -2 -12 0
-96 3 0
-96 12 0
96 -3 -12 0
-97 84 95 0
-97 -84 -95 0
97 -84 95 0
97 84 -95 0
-98 84 0
-98 95 0
98 -84 -95 0
-99 84 95 0
-99 -84 -95 0
99 -84 95 0
99 84 -95 0
-100 90 96 0
-100 -90 -96 0
100 -90 96 0
100 90 -96 0
-101 100 98 0
-101 -100 -98 0
101 -100 98 0
101 100 -98 0
-102 90 0
-102 96 0
102 -90 -96 0
-103 90 96 0
-103 -90 -96 0
103 -90 96 0
103 90 -96 0
-104 98 0
-104 103 0
104 -98 -103 0
-105 -102 0
-105 -104 0
105 102 104 0
-106 2 0
-106 13 0
106 -2 -13 0
-107 101 106 0
-107 -101 -106 0
107 -101 106 0
107 101 -106 0
-108 101 0
-108 106 0
108 -101 -106 0
-109 101 106 0
-109 -101 -106 0
109 -101 106 0
109 101 -106 0
-110 8 0
-110 2 0
110 -8 -2 0
-111 9 0
-111 2 0
111 -9 -2 0
-112 10 0
-112 2 0
112 -10 -2 0
-113 11 0
-113 2 0
113 -11 -2 0
-114 12 0
-114 2 0
114 -12 -2 0
-115 13 0
-115 2 0
115 -13 -2 0
-116 8 0
-116 3 0
116 -8 -3 0
-117 9 0
-117 3 0
117 -9 -3 0
-118 10 0
-118 3 0
118 -10 -3 0
-119 11 0
-119 3 0
119 -11 -3 0
-120 12 0
-120 3 0
120 -12 -3 0
-121 111 116 0
-121 -111 -116 0
121 -111 116 0
121 111 -116 0
-122 111 0
-122 116 0
122 -111 -116 0
-123 111 116 0
-123 -111 -116 0
123 -111 116 0
123 111 -116 0
-124 112 117 0
-124 -112 -117 0
124 -112 117 0
124 112 -117 0
-125 124 122 0
-125 -124 -122 0
125 -124 122 0
125 124 -122 0
-126 112 0
-126 117 0
126 -112 -117 0
-127 112 117 0
-127 -112 -117 0
127 -112 117 0
127 112 -117 0
-128 122 0
-128 127 0
128 -122 -127 0
-129 -126 0
-129 -128 0
129 126 128 0
-130 113 118 0
-130 -113 -118 0
130 -113 118 0
130 113 -118 0
-131 130 -129 0
-131 -130 129 0
131 -130 -129 0
131 130 129 0
-132 113 0
-132 118 0
132 -113 -118 0
-133 113 118 0
-133 -113 -118 0
133 -113 118 0
133 113 -118 0
-134 -129 0
-134 133 0
134 129 -133 0
-135 -132 0
-135 -134 0
135 132 134 0
-136 114 119 0
-136 -114 -119 0
136 -114 119 0
136 114 -119 0
-137 136 -135 0
-137 -136 135 0
137 -136 -135 0
137 136 135 0
-138 114 0
-138 119 0
138 -114 -119 0
-139 114 119 0
-139 -114 -119 0
139 -114 119 0
139 114 -119 0
-140 -135 0
-140 139 0
140 135 -139 0
-141 -138 0
-141 -140 0
141 138 140 0
-142 115 120 0
-142 -115 -120 0
142 -115 120 0
142 115 -120 0
-143 142 -141 0
-143 -142 141 0
143 -142 -141 0
143 142 141 0
-144 115 0
-144 120 0
144 -115 -120 0
-145 115 120 0
-145 -115 -120 0
145 -115 120 0
145 115 -120 0
-146 -141 0
-146 145 0
146 141 -145 0
-147 -144 0
-147 -146 0
147 144 146 0
-148 8 0
-148 4 0
148 -8 -4 0
-149 9 0
-149 4 0
149 -9 -4 0
-150 10 0
-150 4 0
150 -10 -4 0
-151 11 0
-151 4 0
151 -11 -4 0
-152 125 148 0
-152 -125 -148 0
152 -125 148 0
152 125 -148 0
-153 125 0
-153 148 0
153 -125 -148 0
-154 125 148 0
-154 -125 -148 0
154 -125 148 0
154 125 -148 0
-155 131 149 0
-155 -131 -149 0
155 -131 149 0
155 131 -149 0
-156 155 153 0
-156 -155 -153 0
156 -155 153 0
156 155 -153 0
-157 131 0
-157 149 0
157 -131 -149 0
-158 131 149 0
-158 -131 -149 0
158 -131 149 0
158 131 -149 0
-159 153 0
-159 158 0
159 -153 -158 0
-160 -157 0
-160 -159 0
160 157 159 0
-161 137 150 0
-161 -137 -150 0
161 -137 150 0
161 137 -150 0
-162 161 -160 0
-162 -161 160 0
162 -161 -160 0
162 161 160 0
-163 137 0
-163 150 0
163 -137 -150 0
-164 137 150 0
-164 -137 -150 0
164 -137 150 0
164 137 -150 0
-165 -160 0
-165 164 0
165 160 -164 0
-166 -163 0
-166 -165 0
166 163 165 0
-167 143 151 0
-167 -143 -151 0
167 -143 151 0
167 143 -151 0
-168 167 -166 0
-168 -167 166 0
168 -167 -166 0
168 167 166 0
-169 143 0
-169 151 0
169 -143 -151 0
-170 143 151 0
-170 -143 -151 0
170 -143 151 0
170 143 -151 0
-171 -166 0
-171 170 0
171 166 -170 0
-172 -169 0
-172 -171 0
172 169 171 0
-173 8 0
-173 5 0
173 -8 -5 0
-174 9 0
-174 5 0
174 -9 -5 0
-175 10 0
-175 5 0
175 -10 -5 0
-176 156 173 0
-176 -156 -173 0
176 -156 173 0
176 156 -173 0
-177 156 0
-177 173 0
177 -156 -173 0
-178 156 173 0
-178 -156 -173 0
178 -156 173 0
178 156 -173 0
-179 162 174 0
-179 -162 -174 0
179 -162 174 0
179 162 -174 0
-180 179 177 0
-180 -179 -177 0
180 -179 177 0
180 179 -177 0
-181 162 0
-181 174 0
181 -162 -174 0
-182 162 174 0
-182 -162 -174 0
182 -162 174 0
182 162 -174 0
-183 177 0
-183 182 0
183 -177 -182 0
-184 -181 0
-184 -183 0
184 181 183 0
-185 168 175 0
-185 -168 -175 0
185 -168 175 0
185 168 -175 0
-186 185 -184 0
-186 -185 184 0
186 -185 -184 0
186 185 184 0
-187 168 0
-187 175 0
187 -168 -175 0
-188 168 175 0
-188 -168 -175 0
188 -168 175 0
188 168 -175 0
-189 -184 0
-189 188 0
189 184 -188 0
-190 -187 0
-190 -189 0
190 187 189 0
-191 8 0
-191 6 0
191 -8 -6 0
-192 9 0
-192 6 0
192 -9 -6 0
-193 180 191 0
-193 -180 -191 0
193 -180 191 0
193 180 -191 0
-194 180 0
-194 191 0
194 -180 -191 0
-195 180 191 0
-195 -180 -191 0
195 -180 191 0
195 180 -191 0
-196 186 192 0
-196 -186 -192 0
196 -186 192 0
196 186 -192 0
-197 196 194 0
-197 -196 -194 0
197 -196 194 0
197 196 -194 0
-198 186 0
-198 192 0
198 -186 -192 0
-199 186 192 0
-199 -186 -192 0
199 -186 192 0
199 186 -192 0
-200 194 0
-200 199 0
200 -194 -199 0
-201 -198 0
-201 -200 0
201 198 200 0
-202 8 0
-202 7 0
202 -8 -7 0
-203 197 202 0
-203 -197 -202 0
203 -197 202 0
203 197 -202 0
-204 197 0
-204 202 0
204 -197 -202 0
-205 197 202 0
-205 -197 -202 0
205 -197 202 0
205 197 -202 0
-206 14 110 0
-206 -14 -110 0
206 -14 110 0
206 14 -110 0
-207 25 121 0
-207 -25 -121 0
207 -25 121 0
207 25 -121 0
-208 56 152 0
-208 -56 -152 0
208 -56 152 0
208 56 -152 0
-209 80 176 0
-209 -80 -176 0
209 -80 176 0
209 80 -176 0
-210 97 193 0
-210 -97 -193 0
210 -97 193 0
210 97 -193 0
-211 107 203 0
-211 -107 -203 0
211 -107 203 0
211 107 -203 0
206 207 208 209 210 211 0
