p cnf 391 1286
1 0
-18 2 0
-18 10 0
18 -2 -10 0
-19 3 0
-19 10 0
19 -3 -10 0
-20 4 0
-20 10 0
20 -4 -10 0
-21 5 0
-21 10 0
21 -5 -10 0
-22 6 0
-22 10 0
22 -6 -10 0
-23 7 0
-23 10 0
23 -7 -10 0
-24 8 0
-24 10 0
24 -8 -10 0
-25 9 0
-25 10 0
25 -9 -10 0
-26 2 0
-26 11 0
26 -2 -11 0
-27 3 0
-27 11 0
27 -3 -11 0
-28 4 0
-28 11 0
28 -4 -11 0
-29 5 0
-29 11 0
29 -5 -11 0
-30 6 0
-30 11 0
30 -6 -11 0
-31 7 0
-31 11 0
31 -7 -11 0
-32 8 0
-32 11 0
32 -8 -11 0
-33 19 26 0
-33 -19 -26 0
33 -19 26 0
33 19 -26 0
-34 19 0
-34 26 0
34 -19 -26 0
-35 19 26 0
-35 -19 -26 0
35 -19 26 0
35 19 -26 0
-36 20 27 0
-36 -20 -27 0
36 -20 27 0
36 20 -27 0
-37 36 34 0
-37 -36 -34 0
37 -36 34 0
37 36 -34 0
-38 20 0
-38 27 0
38 -20 -27 0
-39 20 27 0
-39 -20 -27 0
39 -20 27 0
39 20 -27 0
-40 34 0
-40 39 0
40 -34 -39 0
-41 -38 0
-41 -40 0
41 38 40 0
-42 21 28 0
-42 -21 -28 0
42 -21 28 0
42 21 -28 0
-43 42 -41 0
-43 -42 41 0
43 -42 -41 0
43 42 41 0
-44 21 0
-44 28 0
44 -21 -28 0
-45 21 28 0
-45 -21 -28 0
45 -21 28 0
45 21 -28 0
-46 -41 0
-46 45 0
46 41 -45 0
-47 -44 0
-47 -46 0
47 44 46 0
-48 22 29 0
-48 -22 -29 0
48 -22 29 0
48 22 -29 0
-49 48 -47 0
-49 -48 47 0
49 -48 -47 0
49 48 47 0
-50 22 0
-50 29 0
50 -22 -29 0
-51 22 29 0
-51 -22 -29 0
51 -22 29 0
51 22 -29 0
-52 -47 0
-52 51 0
52 47 -51 0
-53 -50 0
-53 -52 0
53 50 52 0
-54 23 30 0
-54 -23 -30 0
54 -23 30 0
54 23 -30 0
-55 54 -53 0
-55 -54 53 0
55 -54 -53 0
55 54 53 0
-56 23 0
-56 30 0
56 -23 -30 0
-57 23 30 0
-57 -23 -30 0
57 -23 30 0
57 23 -30 0
-58 -53 0
-58 57 0
58 53 -57 0
-59 -56 0
-59 -58 0
59 56 58 0
-60 24 31 0
-60 -24 -31 0
60 -24 31 0
60 24 -31 0
-61 60 -59 0
-61 -60 59 0
61 -60 -59 0
61 60 59 0
-62 24 0
-62 31 0
62 -24 -31 0
-63 24 31 0
-63 -24 -31 0
63 -24 31 0
63 24 -31 0
-64 -59 0
-64 63 0
64 59 -63 0
-65 -62 0
-65 -64 0
65 62 64 0
-66 25 32 0
-66 -25 -32 0
66 -25 32 0
66 25 -32 0
-67 66 -65 0
-67 -66 65 0
67 -66 -65 0
67 66 65 0
-68 25 0
-68 32 0
68 -25 -32 0
-69 25 32 0
-69 -25 -32 0
69 -25 32 0
69 25 -32 0
-70 -65 0
-70 69 0
70 65 -69 0
-71 -68 0
-71 -70 0
71 68 70 0
-72 2 0
-72 12 0
72 -2 -12 0
-73 3 0
-73 12 0
73 -3 -12 0
-74 4 0
-74 12 0
74 -4 -12 0
-75 5 0
-75 12 0
75 -5 -12 0
-76 6 0
-76 12 0
76 -6 -12 0
-77 7 0
-77 12 0
77 -7 -12 0
-78 37 72 0
-78 -37 -72 0
78 -37 72 0
78 37 -72 0
-79 37 0
-79 72 0
79 -37 -72 0
-80 37 72 0
-80 -37 -72 0
80 -37 72 0
80 37 -72 0
-81 43 73 0
-81 -43 -73 0
81 -43 73 0
81 43 -73 0
-82 81 79 0
-82 -81 -79 0
82 -81 79 0
82 81 -79 0
-83 43 0
-83 73 0
83 -43 -73 0
-84 43 73 0
-84 -43 -73 0
84 -43 73 0
84 43 -73 0
-85 79 0
-85 84 0
85 -79 -84 0
-86 -83 0
-86 -85 0
86 83 85 0
-87 49 74 0
-87 -49 -74 0
87 -49 74 0
87 49 -74 0
-88 87 -86 0
-88 -87 86 0
88 -87 -86 0
88 87 86 0
-89 49 0
-89 74 0
89 -49 -74 0
-90 49 74 0
-90 -49 -74 0
90 -49 74 0
90 49 -74 0
-91 -86 0
-91 90 0
91 86 -90 0
-92 -89 0
-92 -91 0
92 89 91 0
-93 55 75 0
-93 -55 -75 0
93 -55 75 0
93 55 -75 0
-94 93 -92 0
-94 -93 92 0
94 -93 -92 0
94 93 92 0
-95 55 0
-95 75 0
95 -55 -75 0
-96 55 75 0
-96 -55 -75 0
96 -55 75 0
96 55 -75 0
-97 -92 0
-97 96 0
97 92 -96 0
-98 -95 0
-98 -97 0
98 95 97 0
-99 61 76 0
-99 -61 -76 0
99 -61 76 0
99 61 -76 0
-100 99 -98 0
-100 -99 98 0
100 -99 -98 0
100 99 98 0
-101 61 0
-101 76 0
101 -61 -76 0
-102 61 76 0
-102 -61 -76 0
102 -61 76 0
102 61 -76 0
-103 -98 0
-103 102 0
103 98 -102 0
-104 -101 0
-104 -103 0
104 101 103 0
-105 67 77 0
-105 -67 -77 0
105 -67 77 0
105 67 -77 0
-106 105 -104 0
-106 -105 104 0
106 -105 -104 0
106 105 104 0
-107 67 0
-107 77 0
107 -67 -77 0
-108 67 77 0
-108 -67 -77 0
108 -67 77 0
108 67 -77 0
-109 -104 0
-109 108 0
109 104 -108 0
-110 -107 0
-110 -109 0
110 107 109 0
-111 2 0
-111 13 0
111 -2 -13 0
-112 3 0
-112 13 0
112 -3 -13 0
-113 4 0
-113 13 0
113 -4 -13 0
-114 5 0
-114 13 0
114 -5 -13 0
-115 6 0
-115 13 0
115 -6 -13 0
-116 82 111 0
-116 -82 -111 0
116 -82 111 0
116 82 -111 0
-117 82 0
-117 111 0
117 -82 -111 0
-118 82 111 0
-118 -82 -111 0
118 -82 111 0
118 82 -111 0
-119 88 112 0
-119 -88 -112 0
119 -88 112 0
119 88 -112 0
-120 119 117 0
-120 -119 -117 0
120 -119 117 0
120 119 -117 0
-121 88 0
-121 112 0
121 -88 -112 0
-122 88 112 0
-122 -88 -112 0
122 -88 112 0
122 88 -112 0
-123 117 0
-123 122 0
123 -117 -122 0
-124 -121 0
-124 -123 0
124 121 123 0
-125 94 113 0
-125 -94 -113 0
125 -94 113 0
125 94 -113 0
-126 125 -124 0
-126 -125 124 0
126 -125 -124 0
126 125 124 0
-127 94 0
-127 113 0
127 -94 -113 0
-128 94 113 0
-128 -94 -113 0
128 -94 113 0
128 94 -113 0
-129 -124 0
-129 128 0
129 124 -128 0
-130 -127 0
-130 -129 0
130 127 129 0
-131 100 114 0
-131 -100 -114 0
131 -100 114 0
131 100 -114 0
-132 131 -130 0
-132 -131 130 0
132 -131 -130 0
132 131 130 0
-133 100 0
-133 114 0
133 -100 -114 0
-134 100 114 0
-134 -100 -114 0
134 -100 114 0
134 100 -114 0
-135 -130 0
-135 134 0
135 130 -134 0
-136 -133 0
-136 -135 0
136 133 135 0
-137 106 115 0
-137 -106 -115 0
137 -106 115 0
137 106 -115 0
-138 137 -136 0
-138 -137 136 0
138 -137 -136 0
138 137 136 0
-139 106 0
-139 115 0
139 -106 -115 0
-140 106 115 0
-140 -106 -115 0
140 -106 115 0
140 106 -115 0
-141 -136 0
-141 140 0
141 136 -140 0
-142 -139 0
-142 -141 0
142 139 141 0
-143 2 0
-143 14 0
143 -2 -14 0
-144 3 0
-144 14 0
144 -3 -14 0
-145 4 0
-145 14 0
145 -4 -14 0
-146 5 0
-146 14 0
146 -5 -14 0
-147 120 143 0
-147 -120 -143 0
147 -120 143 0
147 120 -143 0
-148 120 0
-148 143 0
148 -120 -143 0
-149 120 143 0
-149 -120 -143 0
149 -120 143 0
149 120 -143 0
-150 126 144 0
-150 -126 -144 0
150 -126 144 0
150 126 -144 0
-151 150 148 0
-151 -150 -148 0
151 -150 148 0
151 150 -148 0
-152 126 0
-152 144 0
152 -126 -144 0
-153 126 144 0
-153 -126 -144 0
153 -126 144 0
153 126 -144 0
-154 148 0
-154 153 0
154 -148 -153 0
-155 -152 0
-155 -154 0
155 152 154 0
-156 132 145 0
-156 -132 -145 0
156 -132 145 0
156 132 -145 0
-157 156 -155 0
-157 -156 155 0
157 -156 -155 0
157 156 155 0
-158 132 0
-158 145 0
158 -132 -145 0
-159 132 145 0
-159 -132 -145 0
159 -132 145 0
159 132 -145 0
-160 -155 0
-160 159 0
160 155 -159 0
-161 -158 0
-161 -160 0
161 158 160 0
-162 138 146 0
-162 -138 -146 0
162 -138 146 0
162 138 -146 0
-163 162 -161 0
-163 -162 161 0
163 -162 -161 0
163 162 161 0
-164 138 0
-164 146 0
164 -138 -146 0
-165 138 146 0
-165 -138 -146 0
165 -138 146 0
165 138 -146 0
-166 -161 0
-166 165 0
166 161 -165 0
-167 -164 0
-167 -166 0
167 164 166 0
-168 2 0
-168 15 0
168 -2 -15 0
-169 3 0
-169 15 0
169 -3 -15 0
-170 4 0
-170 15 0
170 -4 -15 0
-171 151 168 0
-171 -151 -168 0
171 -151 168 0
171 151 -168 0
-172 151 0
-172 168 0
172 -151 -168 0
-173 151 168 0
-173 -151 -168 0
173 -151 168 0
173 151 -168 0
-174 157 169 0
-174 -157 -169 0
174 -157 169 0
174 157 -169 0
-175 174 172 0
-175 -174 -172 0
175 -174 172 0
175 174 -172 0
-176 157 0
-176 169 0
176 -157 -169 0
-177 157 169 0
-177 -157 -169 0
177 -157 169 0
177 157 -169 0
-178 172 0
-178 177 0
178 -172 -177 0
-179 -176 0
-179 -178 0
179 176 178 0
-180 163 170 0
-180 -163 -170 0
180 -163 170 0
180 163 -170 0
-181 180 -179 0
-181 -180 179 0
181 -180 -179 0
181 180 179 0
-182 163 0
-182 170 0
182 -163 -170 0
-183 163 170 0
-183 -163 -170 0
183 -163 170 0
183 163 -170 0
-184 -179 0
-184 183 0
184 179 -183 0
-185 -182 0
-185 -184 0
185 182 184 0
-186 2 0
-186 16 0
186 -2 -16 0
-187 3 0
-187 16 0
187 -3 -16 0
-188 175 186 0
-188 -175 -186 0
188 -175 186 0
188 175 -186 0
-189 175 0
-189 186 0
189 -175 -186 0
-190 175 186 0
-190 -175 -186 0
190 -175 186 0
190 175 -186 0
-191 181 187 0
-191 -181 -187 0
191 -181 187 0
191 181 -187 0
-192 191 189 0
-192 -191 -189 0
192 -191 189 0
192 191 -189 0
-193 181 0
-193 187 0
193 -181 -187 0
-194 181 187 0
-194 -181 -187 0
194 -181 187 0
194 181 -187 0
-195 189 0
-195 194 0
195 -189 -194 0
-196 -193 0
-196 -195 0
196 193 195 0
-197 2 0
-197 17 0
197 -2 -17 0
-198 192 197 0
-198 -192 -197 0
198 -192 197 0
198 192 -197 0
-199 192 0
-199 197 0
199 -192 -197 0
-200 192 197 0
-200 -192 -197 0
200 -192 197 0
200 192 -197 0
-201 10 0
-201 2 0
201 -10 -2 0
-202 11 0
-202 2 0
202 -11 -2 0
-203 12 0
-203 2 0
203 -12 -2 0
-204 13 0
-204 2 0
204 -13 -2 0
-205 14 0
-205 2 0
205 -14 -2 0
-206 15 0
-206 2 0
206 -15 -2 0
-207 16 0
-207 2 0
207 -16 -2 0
-208 17 0
-208 2 0
208 -17 -2 0
-209 10 0
-209 3 0
209 -10 -3 0
-210 11 0
-210 3 0
210 -11 -3 0
-211 12 0
-211 3 0
211 -12 -3 0
-212 13 0
-212 3 0
212 -13 -3 0
-213 14 0
-213 3 0
213 -14 -3 0
-214 15 0
-214 3 0
214 -15 -3 0
-215 16 0
-215 3 0
215 -16 -3 0
-216 202 209 0
-216 -202 -209 0
216 -202 209 0
216 202 -209 0
-217 202 0
-217 209 0
217 -202 -209 0
-218 202 209 0
-218 -202 -209 0
218 -202 209 0
218 202 -209 0
-219 203 210 0
-219 -203 -210 0
219 -203 210 0
219 203 -210 0
-220 219 217 0
-220 -219 -217 0
220 -219 217 0
220 219 -217 0
-221 203 0
-221 210 0
221 -203 -210 0
-222 203 210 0
-222 -203 -210 0
222 -203 210 0
222 203 -210 0
-223 217 0
-223 222 0
223 -217 -222 0
-224 -221 0
-224 -223 0
224 221 223 0
-225 204 211 0
-225 -204 -211 0
225 -204 211 0
225 204 -211 0
-226 225 -224 0
-226 -225 224 0
226 -225 -224 0
226 225 224 0
-227 204 0
-227 211 0
227 -204 -211 0
-228 204 211 0
-228 -204 -211 0
228 -204 211 0
228 204 -211 0
-229 -224 0
-229 228 0
229 224 -228 0
-230 -227 0
-230 -229 0
230 227 229 0
-231 205 212 0
-231 -205 -212 0
231 -205 212 0
231 205 -212 0
-232 231 -230 0
-232 -231 230 0
232 -231 -230 0
232 231 230 0
-233 205 0
-233 212 0
233 -205 -212 0
-234 205 212 0
-234 -205 -212 0
234 -205 212 0
234 205 -212 0
-235 -230 0
-235 234 0
235 230 -234 0
-236 -233 0
-236 -235 0
236 233 235 0
-237 206 213 0
-237 -206 -213 0
237 -206 213 0
237 206 -213 0
-238 237 -236 0
-238 -237 236 0
238 -237 -236 0
238 237 236 0
-239 206 0
-239 213 0
239 -206 -213 0
-240 206 213 0
-240 -206 -213 0
240 -206 213 0
240 206 -213 0
-241 -236 0
-241 240 0
241 236 -240 0
-242 -239 0
-242 -241 0
242 239 241 0
-243 207 214 0
-243 -207 -214 0
243 -207 214 0
243 207 -214 0
-244 243 -242 0
-244 -243 242 0
244 -243 -242 0
244 243 242 0
-245 207 0
-245 214 0
245 -207 -214 0
-246 207 214 0
-246 -207 -214 0
246 -207 214 0
246 207 -214 0
-247 -242 0
-247 246 0
247 242 -246 0
-248 -245 0
-248 -247 0
248 245 247 0
-249 208 215 0
-249 -208 -215 0
249 -208 215 0
249 208 -215 0
-250 249 -248 0
-250 -249 248 0
250 -249 -248 0
250 249 248 0
-251 208 0
-251 215 0
251 -208 -215 0
-252 208 215 0
-252 -208 -215 0
252 -208 215 0
252 208 -215 0
-253 -248 0
-253 252 0
253 248 -252 0
-254 -251 0
-254 -253 0
254 251 253 0
-255 10 0
-255 4 0
255 -10 -4 0
-256 11 0
-256 4 0
256 -11 -4 0
-257 12 0
-257 4 0
257 -12 -4 0
-258 13 0
-258 4 0
258 -13 -4 0
-259 14 0
-259 4 0
259 -14 -4 0
-260 15 0
-260 4 0
260 -15 -4 0
-261 220 255 0
-261 -220 -255 0
261 -220 255 0
261 220 -255 0
-262 220 0
-262 255 0
262 -220 -255 0
-263 220 255 0
-263 -220 -255 0
263 -220 255 0
263 220 -255 0
-264 226 256 0
-264 -226 -256 0
264 -226 256 0
264 226 -256 0
-265 264 262 0
-265 -264 -262 0
265 -264 262 0
265 264 -262 0
-266 226 0
-266 256 0
266 -226 -256 0
-267 226 256 0
-267 -226 -256 0
267 -226 256 0
267 226 -256 0
-268 262 0
-268 267 0
268 -262 -267 0
-269 -266 0
-269 -268 0
269 266 268 0
-270 232 257 0
-270 -232 -257 0
270 -232 257 0
270 232 -257 0
-271 270 -269 0
-271 -270 269 0
271 -270 -269 0
271 270 269 0
-272 232 0
-272 257 0
272 -232 -257 0
-273 232 257 0
-273 -232 -257 0
273 -232 257 0
273 232 -257 0
-274 -269 0
-274 273 0
274 269 -273 0
-275 -272 0
-275 -274 0
275 272 274 0
-276 238 258 0
-276 -238 -258 0
276 -238 258 0
276 238 -258 0
-277 276 -275 0
-277 -276 275 0
277 -276 -275 0
277 276 275 0
-278 238 0
-278 258 0
278 -238 -258 0
-279 238 258 0
-279 -238 -258 0
279 -238 258 0
279 238 -258 0
-280 -275 0
-280 279 0
280 275 -279 0
-281 -278 0
-281 -280 0
281 278 280 0
-282 244 259 0
-282 -244 -259 0
282 -244 259 0
282 244 -259 0
-283 282 -281 0
-283 -282 281 0
283 -282 -281 0
283 282 281 0
-284 244 0
-284 259 0
284 -244 -259 0
-285 244 259 0
-285 -244 -259 0
285 -244 259 0
285 244 -259 0
-286 -281 0
-286 285 0
286 281 -285 0
-287 -284 0
-287 -286 0
287 284 286 0
-288 250 260 0
-288 -250 -260 0
288 -250 260 0
288 250 -260 0
-289 288 -287 0
-289 -288 287 0
289 -288 -287 0
289 288 287 0
-290 250 0
-290 260 0
290 -250 -260 0
-291 250 260 0
-291 -250 -260 0
291 -250 260 0
291 250 -260 0
-292 -287 0
-292 291 0
292 287 -291 0
-293 -290 0
-293 -292 0
293 290 292 0
-294 10 0
-294 5 0
294 -10 -5 0
-295 11 0
-295 5 0
295 -11 -5 0
-296 12 0
-296 5 0
296 -12 -5 0
-297 13 0
-297 5 0
297 -13 -5 0
-298 14 0
-298 5 0
298 -14 -5 0
-299 265 294 0
-299 -265 -294 0
299 -265 294 0
299 265 -294 0
-300 265 0
-300 294 0
300 -265 -294 0
-301 265 294 0
-301 -265 -294 0
301 -265 294 0
301 265 -294 0
-302 271 295 0
-302 -271 -295 0
302 -271 295 0
302 271 -295 0
-303 302 300 0
-303 -302 -300 0
303 -302 300 0
303 302 -300 0
-304 271 0
-304 295 0
304 -271 -295 0
-305 271 295 0
-305 -271 -295 0
305 -271 295 0
305 271 -295 0
-306 300 0
-306 305 0
306 -300 -305 0
-307 -304 0
-307 -306 0
307 304 306 0
-308 277 296 0
-308 -277 -296 0
308 -277 296 0
308 277 -296 0
-309 308 -307 0
-309 -308 307 0
309 -308 -307 0
309 308 307 0
-310 277 0
-310 296 0
310 -277 -296 0
-311 277 296 0
-311 -277 -296 0
311 -277 296 0
311 277 -296 0
-312 -307 0
-312 311 0
312 307 -311 0
-313 -310 0
-313 -312 0
313 310 312 0
-314 283 297 0
-314 -283 -297 0
314 -283 297 0
314 283 -297 0
-315 314 -313 0
-315 -314 313 0
315 -314 -313 0
315 314 313 0
-316 283 0
-316 297 0
316 -283 -297 0
-317 283 297 0
-317 -283 -297 0
317 -283 297 0
317 283 -297 0
-318 -313 0
-318 317 0
318 313 -317 0
-319 -316 0
-319 -318 0
319 316 318 0
-320 289 298 0
-320 -289 -298 0
320 -289 298 0
320 289 -298 0
-321 320 -319 0
-321 -320 319 0
321 -320 -319 0
321 320 319 0
-322 289 0
-322 298 0
322 -289 -298 0
-323 289 298 0
-323 -289 -298 0
323 -289 298 0
323 289 -298 0
-324 -319 0
-324 323 0
324 319 -323 0
-325 -322 0
-325 -324 0
325 322 324 0
-326 10 0
-326 6 0
326 -10 -6 0
-327 11 0
-327 6 0
327 -11 -6 0
-328 12 0
-328 6 0
328 -12 -6 0
-329 13 0
-329 6 0
329 -13 -6 0
-330 303 326 0
-330 -303 -326 0
330 -303 326 0
330 303 -326 0
-331 303 0
-331 326 0
331 -303 -326 0
-332 303 326 0
-332 -303 -326 0
332 -303 326 0
332 303 -326 0
-333 309 327 0
-333 -309 -327 0
333 -309 327 0
333 309 -327 0
-334 333 331 0
-334 -333 -331 0
334 -333 331 0
334 333 -331 0
-335 309 0
-335 327 0
335 -309 -327 0
-336 309 327 0
-336 -309 -327 0
336 -309 327 0
336 309 -327 0
-337 331 0
-337 336 0
337 -331 -336 0
-338 -335 0
-338 -337 0
338 335 337 0
-339 315 328 0
-339 -315 -328 0
339 -315 328 0
339 315 -328 0
-340 339 -338 0
-340 -339 338 0
340 -339 -338 0
340 339 338 0
-341 315 0
-341 328 0
341 -315 -328 0
-342 315 328 0
-342 -315 -328 0
342 -315 328 0
342 315 -328 0
-343 -338 0
-343 342 0
343 338 -342 0
-344 -341 0
-344 -343 0
344 341 343 0
-345 321 329 0
-345 -321 -329 0
345 -321 329 0
345 321 -329 0
-346 345 -344 0
-346 -345 344 0
346 -345 -344 0
346 345 344 0
-347 321 0
-347 329 0
347 -321 -329 0
-348 321 329 0
-348 -321 -329 0
348 -321 329 0
348 321 -329 0
-349 -344 0
-349 348 0
349 344 -348 0
-350 -347 0
-350 -349 0
350 347 349 0
-351 10 0
-351 7 0
351 -10 -7 0
-352 11 0
-352 7 0
352 -11 -7 0
-353 12 0
-353 7 0
353 -12 -7 0
-354 334 351 0
-354 -334 -351 0
354 -334 351 0
354 334 -351 0
-355 334 0
-355 351 0
355 -334 -351 0
-356 334 351 0
-356 -334 -351 0
356 -334 351 0
356 334 -351 0
-357 340 352 0
-357 -340 -352 0
357 -340 352 0
357 340 -352 0
-358 357 355 0
-358 -357 -355 0
358 -357 355 0
358 357 -355 0
-359 340 0
-359 352 0
359 -340 -352 0
-360 340 352 0
-360 -340 -352 0
360 -340 352 0
360 340 -352 0
-361 355 0
-361 360 0
361 -355 -360 0
-362 -359 0
-362 -361 0
362 359 361 0
-363 346 353 0
-363 -346 -353 0
363 -346 353 0
363 346 -353 0
-364 363 -362 0
-364 -363 362 0
364 -363 -362 0
364 363 362 0
-365 346 0
-365 353 0
365 -346 -353 0
-366 346 353 0
-366 -346 -353 0
366 -346 353 0
366 346 -353 0
-367 -362 0
-367 366 0
367 362 -366 0
-368 -365 0
-368 -367 0
368 365 367 0
-369 10 0
-369 8 0
369 -10 -8 0
-370 11 0
-370 8 0
370 -11 -8 0
-371 358 369 0
-371 -358 -369 0
371 -358 369 0
371 358 -369 0
-372 358 0
-372 369 0
372 -358 -369 0
-373 358 369 0
-373 -358 -369 0
373 -358 369 0
373 358 -369 0
-374 364 370 0
-374 -364 -370 0
374 -364 370 0
374 364 -370 0
-375 374 372 0
-375 -374 -372 0
375 -374 372 0
375 374 -372 0
-376 364 0
-376 370 0
376 -364 -370 0
-377 364 370 0
-377 -364 -370 0
377 -364 370 0
377 364 -370 0
-378 372 0
-378 377 0
378 -372 -377 0
-379 -376 0
-379 -378 0
379 376 378 0
-380 10 0
-380 9 0
380 -10 -9 0
-381 375 380 0
-381 -375 -380 0
381 -375 380 0
381 375 -380 0
-382 375 0
-382 380 0
382 -375 -380 0
-383 375 380 0
-383 -375 -380 0
383 -375 380 0
383 375 -380 0
-384 18 201 0
-384 -18 -201 0
384 -18 201 0
384 18 -201 0
-385 33 216 0
-385 -33 -216 0
385 -33 216 0
385 33 -216 0
-386 78 261 0
-386 -78 -261 0
386 -78 261 0
386 78 -261 0
-387 116 299 0
-387 -116 -299 0
387 -116 299 0
387 116 -299 0
-388 147 330 0
-388 -147 -330 0
388 -147 330 0
388 147 -330 0
-389 171 354 0
-389 -171 -354 0
389 -171 354 0
389 171 -354 0
-390 188 371 0
-390 -188 -371 0
390 -188 371 0
390 188 -371 0
-391 198 381 0
-391 -198 -381 0
391 -198 381 0
391 198 -381 0
384 385 386 387 388 389 390 391 0
