p cnf 919 3070
1 0
-26 2 0
-26 14 0
26 -2 -14 0
-27 3 0
-27 14 0
27 -3 -14 0
-28 4 0
-28 14 0
28 -4 -14 0
-29 5 0
-29 14 0
29 -5 -14 0
-30 6 0
-30 14 0
30 -6 -14 0
-31 7 0
-31 14 0
31 -7 -14 0
-32 8 0
-32 14 0
32 -8 -14 0
-33 9 0
-33 14 0
33 -9 -14 0
-34 10 0
-34 14 0
34 -10 -14 0
-35 11 0
-35 14 0
35 -11 -14 0
-36 12 0
-36 14 0
36 -12 -14 0
-37 13 0
-37 14 0
37 -13 -14 0
-38 2 0
-38 15 0
38 -2 -15 0
-39 3 0
-39 15 0
39 -3 -15 0
-40 4 0
-40 15 0
40 -4 -15 0
-41 5 0
-41 15 0
41 -5 -15 0
-42 6 0
-42 15 0
42 -6 -15 0
-43 7 0
-43 15 0
43 -7 -15 0
-44 8 0
-44 15 0
44 -8 -15 0
-45 9 0
-45 15 0
45 -9 -15 0
-46 10 0
-46 15 0
46 -10 -15 0
-47 11 0
-47 15 0
47 -11 -15 0
-48 12 0
-48 15 0
48 -12 -15 0
-49 27 38 0
-49 -27 -38 0
49 -27 38 0
49 27 -38 0
-50 27 0
-50 38 0
50 -27 -38 0
-51 27 38 0
-51 -27 -38 0
51 -27 38 0
51 27 -38 0
-52 28 39 0
-52 -28 -39 0
52 -28 39 0
52 28 -39 0
-53 52 50 0
-53 -52 -50 0
53 -52 50 0
53 52 -50 0
-54 28 0
-54 39 0
54 -28 -39 0
-55 28 39 0
-55 -28 -39 0
55 -28 39 0
55 28 -39 0
-56 50 0
-56 55 0
56 -50 -55 0
-57 -54 0
-57 -56 0
57 54 56 0
-58 29 40 0
-58 -29 -40 0
58 -29 40 0
58 29 -40 0
-59 58 -57 0
-59 -58 57 0
59 -58 -57 0
59 58 57 0
-60 29 0
-60 40 0
60 -29 -40 0
-61 29 40 0
-61 -29 -40 0
61 -29 40 0
61 29 -40 0
-62 -57 0
-62 61 0
62 57 -61 0
-63 -60 0
-63 -62 0
63 60 62 0
-64 30 41 0
-64 -30 -41 0
64 -30 41 0
64 30 -41 0
-65 64 -63 0
-65 -64 63 0
65 -64 -63 0
65 64 63 0
-66 30 0
-66 41 0
66 -30 -41 0
-67 30 41 0
-67 -30 -41 0
67 -30 41 0
67 30 -41 0
-68 -63 0
-68 67 0
68 63 -67 0
-69 -66 0
-69 -68 0
69 66 68 0
-70 31 42 0
-70 -31 -42 0
70 -31 42 0
70 31 -42 0
-71 70 -69 0
-71 -70 69 0
71 -70 -69 0
71 70 69 0
-72 31 0
-72 42 0
72 -31 -42 0
-73 31 42 0
-73 -31 -42 0
73 -31 42 0
73 31 -42 0
-74 -69 0
-74 73 0
74 69 -73 0
-75 -72 0
-75 -74 0
75 72 74 0
-76 32 43 0
-76 -32 -43 0
76 -32 43 0
76 32 -43 0
-77 76 -75 0
-77 -76 75 0
77 -76 -75 0
77 76 75 0
-78 32 0
-78 43 0
78 -32 -43 0
-79 32 43 0
-79 -32 -43 0
79 -32 43 0
79 32 -43 0
-80 -75 0
-80 79 0
80 75 -79 0
-81 -78 0
-81 -80 0
81 78 80 0
-82 33 44 0
-82 -33 -44 0
82 -33 44 0
82 33 -44 0
-83 82 -81 0
-83 -82 81 0
83 -82 -81 0
83 82 81 0
-84 33 0
-84 44 0
84 -33 -44 0
-85 33 44 0
-85 -33 -44 0
85 -33 44 0
85 33 -44 0
-86 -81 0
-86 85 0
86 81 -85 0
-87 -84 0
-87 -86 0
87 84 86 0
-88 34 45 0
-88 -34 -45 0
88 -34 45 0
88 34 -45 0
-89 88 -87 0
-89 -88 87 0
89 -88 -87 0
89 88 87 0
-90 34 0
-90 45 0
90 -34 -45 0
-91 34 45 0
-91 -34 -45 0
91 -34 45 0
91 34 -45 0
-92 -87 0
-92 91 0
92 87 -91 0
-93 -90 0
-93 -92 0
93 90 92 0
-94 35 46 0
-94 -35 -46 0
94 -35 46 0
94 35 -46 0
-95 94 -93 0
-95 -94 93 0
95 -94 -93 0
95 94 93 0
-96 35 0
-96 46 0
96 -35 -46 0
-97 35 46 0
-97 -35 -46 0
97 -35 46 0
97 35 -46 0
-98 -93 0
-98 97 0
98 93 -97 0
-99 -96 0
-99 -98 0
99 96 98 0
-100 36 47 0
-100 -36 -47 0
100 -36 47 0
100 36 -47 0
-101 100 -99 0
-101 -100 99 0
101 -100 -99 0
101 100 99 0
-102 36 0
-102 47 0
102 -36 -47 0
-103 36 47 0
-103 -36 -47 0
103 -36 47 0
103 36 -47 0
-104 -99 0
-104 103 0
104 99 -103 0
-105 -102 0
-105 -104 0
105 102 104 0
-106 37 48 0
-106 -37 -48 0
106 -37 48 0
106 37 -48 0
-107 106 -105 0
-107 -106 105 0
107 -106 -105 0
107 106 105 0
-108 37 0
-108 48 0
108 -37 -48 0
-109 37 48 0
-109 -37 -48 0
109 -37 48 0
109 37 -48 0
-110 -105 0
-110 109 0
110 105 -109 0
-111 -108 0
-111 -110 0
111 108 110 0
-112 2 0
-112 16 0
112 -2 -16 0
-113 3 0
-113 16 0
113 -3 -16 0
-114 4 0
-114 16 0
114 -4 -16 0
-115 5 0
-115 16 0
115 -5 -16 0
-116 6 0
-116 16 0
116 -6 -16 0
-117 7 0
-117 16 0
117 -7 -16 0
-118 8 0
-118 16 0
118 -8 -16 0
-119 9 0
-119 16 0
119 -9 -16 0
-120 10 0
-120 16 0
120 -10 -16 0
-121 11 0
-121 16 0
121 -11 -16 0
-122 53 112 0
-122 -53 -112 0
122 -53 112 0
122 53 -112 0
-123 53 0
-123 112 0
123 -53 -112 0
-124 53 112 0
-124 -53 -112 0
124 -53 112 0
124 53 -112 0
-125 59 113 0
-125 -59 -113 0
125 -59 113 0
125 59 -113 0
-126 125 123 0
-126 -125 -123 0
126 -125 123 0
126 125 -123 0
-127 59 0
-127 113 0
127 -59 -113 0
-128 59 113 0
-128 -59 -113 0
128 -59 113 0
128 59 -113 0
-129 123 0
-129 128 0
129 -123 -128 0
-130 -127 0
-130 -129 0
130 127 129 0
-131 65 114 0
-131 -65 -114 0
131 -65 114 0
131 65 -114 0
-132 131 -130 0
-132 -131 130 0
132 -131 -130 0
132 131 130 0
-133 65 0
-133 114 0
133 -65 -114 0
-134 65 114 0
-134 -65 -114 0
134 -65 114 0
134 65 -114 0
-135 -130 0
-135 134 0
135 130 -134 0
-136 -133 0
-136 -135 0
136 133 135 0
-137 71 115 0
-137 -71 -115 0
137 -71 115 0
137 71 -115 0
-138 137 -136 0
-138 -137 136 0
138 -137 -136 0
138 137 136 0
-139 71 0
-139 115 0
139 -71 -115 0
-140 71 115 0
-140 -71 -115 0
140 -71 115 0
140 71 -115 0
-141 -136 0
-141 140 0
141 136 -140 0
-142 -139 0
-142 -141 0
142 139 141 0
-143 77 116 0
-143 -77 -116 0
143 -77 116 0
143 77 -116 0
-144 143 -142 0
-144 -143 142 0
144 -143 -142 0
144 143 142 0
-145 77 0
-145 116 0
145 -77 -116 0
-146 77 116 0
-146 -77 -116 0
146 -77 116 0
146 77 -116 0
-147 -142 0
-147 146 0
147 142 -146 0
-148 -145 0
-148 -147 0
148 145 147 0
-149 83 117 0
-149 -83 -117 0
149 -83 117 0
149 83 -117 0
-150 149 -148 0
-150 -149 148 0
150 -149 -148 0
150 149 148 0
-151 83 0
-151 117 0
151 -83 -117 0
-152 83 117 0
-152 -83 -117 0
152 -83 117 0
152 83 -117 0
-153 -148 0
-153 152 0
153 148 -152 0
-154 -151 0
-154 -153 0
154 151 153 0
-155 89 118 0
-155 -89 -118 0
155 -89 118 0
155 89 -118 0
-156 155 -154 0
-156 -155 154 0
156 -155 -154 0
156 155 154 0
-157 89 0
-157 118 0
157 -89 -118 0
-158 89 118 0
-158 -89 -118 0
158 -89 118 0
158 89 -118 0
-159 -154 0
-159 158 0
159 154 -158 0
-160 -157 0
-160 -159 0
160 157 159 0
-161 95 119 0
-161 -95 -119 0
161 -95 119 0
161 95 -119 0
-162 161 -160 0
-162 -161 160 0
162 -161 -160 0
162 161 160 0
-163 95 0
-163 119 0
163 -95 -119 0
-164 95 119 0
-164 -95 -119 0
164 -95 119 0
164 95 -119 0
-165 -160 0
-165 164 0
165 160 -164 0
-166 -163 0
-166 -165 0
166 163 165 0
-167 101 120 0
-167 -101 -120 0
167 -101 120 0
167 101 -120 0
-168 167 -166 0
-168 -167 166 0
168 -167 -166 0
168 167 166 0
-169 101 0
-169 120 0
169 -101 -120 0
-170 101 120 0
-170 -101 -120 0
170 -101 120 0
170 101 -120 0
-171 -166 0
-171 170 0
171 166 -170 0
-172 -169 0
-172 -171 0
172 169 171 0
-173 107 121 0
-173 -107 -121 0
173 -107 121 0
173 107 -121 0
-174 173 -172 0
-174 -173 172 0
174 -173 -172 0
174 173 172 0
-175 107 0
-175 121 0
175 -107 -121 0
-176 107 121 0
-176 -107 -121 0
176 -107 121 0
176 107 -121 0
-177 -172 0
-177 176 0
177 172 -176 0
-178 -175 0
-178 -177 0
178 175 177 0
-179 2 0
-179 17 0
179 -2 -17 0
-180 3 0
-180 17 0
180 -3 -17 0
-181 4 0
-181 17 0
181 -4 -17 0
-182 5 0
-182 17 0
182 -5 -17 0
-183 6 0
-183 17 0
183 -6 -17 0
-184 7 0
-184 17 0
184 -7 -17 0
-185 8 0
-185 17 0
185 -8 -17 0
-186 9 0
-186 17 0
186 -9 -17 0
-187 10 0
-187 17 0
187 -10 -17 0
-188 126 179 0
-188 -126 -179 0
188 -126 179 0
188 126 -179 0
-189 126 0
-189 179 0
189 -126 -179 0
-190 126 179 0
-190 -126 -179 0
190 -126 179 0
190 126 -179 0
-191 132 180 0
-191 -132 -180 0
191 -132 180 0
191 132 -180 0
-192 191 189 0
-192 -191 -189 0
192 -191 189 0
192 191 -189 0
-193 132 0
-193 180 0
193 -132 -180 0
-194 132 180 0
-194 -132 -180 0
194 -132 180 0
194 132 -180 0
-195 189 0
-195 194 0
195 -189 -194 0
-196 -193 0
-196 -195 0
196 193 195 0
-197 138 181 0
-197 -138 -181 0
197 -138 181 0
197 138 -181 0
-198 197 -196 0
-198 -197 196 0
198 -197 -196 0
198 197 196 0
-199 138 0
-199 181 0
199 -138 -181 0
-200 138 181 0
-200 -138 -181 0
200 -138 181 0
200 138 -181 0
-201 -196 0
-201 200 0
201 196 -200 0
-202 -199 0
-202 -201 0
202 199 201 0
-203 144 182 0
-203 -144 -182 0
203 -144 182 0
203 144 -182 0
-204 203 -202 0
-204 -203 202 0
204 -203 -202 0
204 203 202 0
-205 144 0
-205 182 0
205 -144 -182 0
-206 144 182 0
-206 -144 -182 0
206 -144 182 0
206 144 -182 0
-207 -202 0
-207 206 0
207 202 -206 0
-208 -205 0
-208 -207 0
208 205 207 0
-209 150 183 0
-209 -150 -183 0
209 -150 183 0
209 150 -183 0
-210 209 -208 0
-210 -209 208 0
210 -209 -208 0
210 209 208 0
-211 150 0
-211 183 0
211 -150 -183 0
-212 150 183 0
-212 -150 -183 0
212 -150 183 0
212 150 -183 0
-213 -208 0
-213 212 0
213 208 -212 0
-214 -211 0
-214 -213 0
214 211 213 0
-215 156 184 0
-215 -156 -184 0
215 -156 184 0
215 156 -184 0
-216 215 -214 0
-216 -215 214 0
216 -215 -214 0
216 215 214 0
-217 156 0
-217 184 0
217 -156 -184 0
-218 156 184 0
-218 -156 -184 0
218 -156 184 0
218 156 -184 0
-219 -214 0
-219 218 0
219 214 -218 0
-220 -217 0
-220 -219 0
220 217 219 0
-221 162 185 0
-221 -162 -185 0
221 -162 185 0
221 162 -185 0
-222 221 -220 0
-222 -221 220 0
222 -221 -220 0
222 221 220 0
-223 162 0
-223 185 0
223 -162 -185 0
-224 162 185 0
-224 -162 -185 0
224 -162 185 0
224 162 -185 0
-225 -220 0
-225 224 0
225 220 -224 0
-226 -223 0
-226 -225 0
226 223 225 0
-227 168 186 0
-227 -168 -186 0
227 -168 186 0
227 168 -186 0
-228 227 -226 0
-228 -227 226 0
228 -227 -226 0
228 227 226 0
-229 168 0
-229 186 0
229 -168 -186 0
-230 168 186 0
-230 -168 -186 0
230 -168 186 0
230 168 -186 0
-231 -226 0
-231 230 0
231 226 -230 0
-232 -229 0
-232 -231 0
232 229 231 0
-233 174 187 0
-233 -174 -187 0
233 -174 187 0
233 174 -187 0
-234 233 -232 0
-234 -233 232 0
234 -233 -232 0
234 233 232 0
-235 174 0
-235 187 0
235 -174 -187 0
-236 174 187 0
-236 -174 -187 0
236 -174 187 0
236 174 -187 0
-237 -232 0
-237 236 0
237 232 -236 0
-238 -235 0
-238 -237 0
238 235 237 0
-239 2 0
-239 18 0
239 -2 -18 0
-240 3 0
-240 18 0
240 -3 -18 0
-241 4 0
-241 18 0
241 -4 -18 0
-242 5 0
-242 18 0
242 -5 -18 0
-243 6 0
-243 18 0
243 -6 -18 0
-244 7 0
-244 18 0
244 -7 -18 0
-245 8 0
-245 18 0
245 -8 -18 0
-246 9 0
-246 18 0
246 -9 -18 0
-247 192 239 0
-247 -192 -239 0
247 -192 239 0
247 192 -239 0
-248 192 0
-248 239 0
248 -192 -239 0
-249 192 239 0
-249 -192 -239 0
249 -192 239 0
249 192 -239 0
-250 198 240 0
-250 -198 -240 0
250 -198 240 0
250 198 -240 0
-251 250 248 0
-251 -250 -248 0
251 -250 248 0
251 250 -248 0
-252 198 0
-252 240 0
252 -198 -240 0
-253 198 240 0
-253 -198 -240 0
253 -198 240 0
253 198 -240 0
-254 248 0
-254 253 0
254 -248 -253 0
-255 -252 0
-255 -254 0
255 252 254 0
-256 204 241 0
-256 -204 -241 0
256 -204 241 0
256 204 -241 0
-257 256 -255 0
-257 -256 255 0
257 -256 -255 0
257 256 255 0
-258 204 0
-258 241 0
258 -204 -241 0
-259 204 241 0
-259 -204 -241 0
259 -204 241 0
259 204 -241 0
-260 -255 0
-260 259 0
260 255 -259 0
-261 -258 0
-261 -260 0
261 258 260 0
-262 210 242 0
-262 -210 -242 0
262 -210 242 0
262 210 -242 0
-263 262 -261 0
-263 -262 261 0
263 -262 -261 0
263 262 261 0
-264 210 0
-264 242 0
264 -210 -242 0
-265 210 242 0
-265 -210 -242 0
265 -210 242 0
265 210 -242 0
-266 -261 0
-266 265 0
266 261 -265 0
-267 -264 0
-267 -266 0
267 264 266 0
-268 216 243 0
-268 -216 -243 0
268 -216 243 0
268 216 -243 0
-269 268 -267 0
-269 -268 267 0
269 -268 -267 0
269 268 267 0
-270 216 0
-270 243 0
270 -216 -243 0
-271 216 243 0
-271 -216 -243 0
271 -216 243 0
271 216 -243 0
-272 -267 0
-272 271 0
272 267 -271 0
-273 -270 0
-273 -272 0
273 270 272 0
-274 222 244 0
-274 -222 -244 0
274 -222 244 0
274 222 -244 0
-275 274 -273 0
-275 -274 273 0
275 -274 -273 0
275 274 273 0
-276 222 0
-276 244 0
276 -222 -244 0
-277 222 244 0
-277 -222 -244 0
277 -222 244 0
277 222 -244 0
-278 -273 0
-278 277 0
278 273 -277 0
-279 -276 0
-279 -278 0
279 276 278 0
-280 228 245 0
-280 -228 -245 0
280 -228 245 0
280 228 -245 0
-281 280 -279 0
-281 -280 279 0
281 -280 -279 0
281 280 279 0
-282 228 0
-282 245 0
282 -228 -245 0
-283 228 245 0
-283 -228 -245 0
283 -228 245 0
283 228 -245 0
-284 -279 0
-284 283 0
284 279 -283 0
-285 -282 0
-285 -284 0
285 282 284 0
-286 234 246 0
-286 -234 -246 0
286 -234 246 0
286 234 -246 0
-287 286 -285 0
-287 -286 285 0
287 -286 -285 0
287 286 285 0
-288 234 0
-288 246 0
288 -234 -246 0
-289 234 246 0
-289 -234 -246 0
289 -234 246 0
289 234 -246 0
-290 -285 0
-290 289 0
290 285 -289 0
-291 -288 0
-291 -290 0
291 288 290 0
-292 2 0
-292 19 0
292 -2 -19 0
-293 3 0
-293 19 0
293 -3 -19 0
-294 4 0
-294 19 0
294 -4 -19 0
-295 5 0
-295 19 0
295 -5 -19 0
-296 6 0
-296 19 0
296 -6 -19 0
-297 7 0
-297 19 0
297 -7 -19 0
-298 8 0
-298 19 0
298 -8 -19 0
-299 251 292 0
-299 -251 -292 0
299 -251 292 0
299 251 -292 0
-300 251 0
-300 292 0
300 -251 -292 0
-301 251 292 0
-301 -251 -292 0
301 -251 292 0
301 251 -292 0
-302 257 293 0
-302 -257 -293 0
302 -257 293 0
302 257 -293 0
-303 302 300 0
-303 -302 -300 0
303 -302 300 0
303 302 -300 0
-304 257 0
-304 293 0
304 -257 -293 0
-305 257 293 0
-305 -257 -293 0
305 -257 293 0
305 257 -293 0
-306 300 0
-306 305 0
306 -300 -305 0
-307 -304 0
-307 -306 0
307 304 306 0
-308 263 294 0
-308 -263 -294 0
308 -263 294 0
308 263 -294 0
-309 308 -307 0
-309 -308 307 0
309 -308 -307 0
309 308 307 0
-310 263 0
-310 294 0
310 -263 -294 0
-311 263 294 0
-311 -263 -294 0
311 -263 294 0
311 263 -294 0
-312 -307 0
-312 311 0
312 307 -311 0
-313 -310 0
-313 -312 0
313 310 312 0
-314 269 295 0
-314 -269 -295 0
314 -269 295 0
314 269 -295 0
-315 314 -313 0
-315 -314 313 0
315 -314 -313 0
315 314 313 0
-316 269 0
-316 295 0
316 -269 -295 0
-317 269 295 0
-317 -269 -295 0
317 -269 295 0
317 269 -295 0
-318 -313 0
-318 317 0
318 313 -317 0
-319 -316 0
-319 -318 0
319 316 318 0
-320 275 296 0
-320 -275 -296 0
320 -275 296 0
320 275 -296 0
-321 320 -319 0
-321 -320 319 0
321 -320 -319 0
321 320 319 0
-322 275 0
-322 296 0
322 -275 -296 0
-323 275 296 0
-323 -275 -296 0
323 -275 296 0
323 275 -296 0
-324 -319 0
-324 323 0
324 319 -323 0
-325 -322 0
-325 -324 0
325 322 324 0
-326 281 297 0
-326 -281 -297 0
326 -281 297 0
326 281 -297 0
-327 326 -325 0
-327 -326 325 0
327 -326 -325 0
327 326 325 0
-328 281 0
-328 297 0
328 -281 -297 0
-329 281 297 0
-329 -281 -297 0
329 -281 297 0
329 281 -297 0
-330 -325 0
-330 329 0
330 325 -329 0
-331 -328 0
-331 -330 0
331 328 330 0
-332 287 298 0
-332 -287 -298 0
332 -287 298 0
332 287 -298 0
-333 332 -331 0
-333 -332 331 0
333 -332 -331 0
333 332 331 0
-334 287 0
-334 298 0
334 -287 -298 0
-335 287 298 0
-335 -287 -298 0
335 -287 298 0
335 287 -298 0
-336 -331 0
-336 335 0
336 331 -335 0
-337 -334 0
-337 -336 0
337 334 336 0
-338 2 0
-338 20 0
338 -2 -20 0
-339 3 0
-339 20 0
339 -3 -20 0
-340 4 0
-340 20 0
340 -4 -20 0
-341 5 0
-341 20 0
341 -5 -20 0
-342 6 0
-342 20 0
342 -6 -20 0
-343 7 0
-343 20 0
343 -7 -20 0
-344 303 338 0
-344 -303 -338 0
344 -303 338 0
344 303 -338 0
-345 303 0
-345 338 0
345 -303 -338 0
-346 303 338 0
-346 -303 -338 0
346 -303 338 0
346 303 -338 0
-347 309 339 0
-347 -309 -339 0
347 -309 339 0
347 309 -339 0
-348 347 345 0
-348 -347 -345 0
348 -347 345 0
348 347 -345 0
-349 309 0
-349 339 0
349 -309 -339 0
-350 309 339 0
-350 -309 -339 0
350 -309 339 0
350 309 -339 0
-351 345 0
-351 350 0
351 -345 -350 0
-352 -349 0
-352 -351 0
352 349 351 0
-353 315 340 0
-353 -315 -340 0
353 -315 340 0
353 315 -340 0
-354 353 -352 0
-354 -353 352 0
354 -353 -352 0
354 353 352 0
-355 315 0
-355 340 0
355 -315 -340 0
-356 315 340 0
-356 -315 -340 0
356 -315 340 0
356 315 -340 0
-357 -352 0
-357 356 0
357 352 -356 0
-358 -355 0
-358 -357 0
358 355 357 0
-359 321 341 0
-359 -321 -341 0
359 -321 341 0
359 321 -341 0
-360 359 -358 0
-360 -359 358 0
360 -359 -358 0
360 359 358 0
-361 321 0
-361 341 0
361 -321 -341 0
-362 321 341 0
-362 -321 -341 0
362 -321 341 0
362 321 -341 0
-363 -358 0
-363 362 0
363 358 -362 0
-364 -361 0
-364 -363 0
364 361 363 0
-365 327 342 0
-365 -327 -342 0
365 -327 342 0
365 327 -342 0
-366 365 -364 0
-366 -365 364 0
366 -365 -364 0
366 365 364 0
-367 327 0
-367 342 0
367 -327 -342 0
-368 327 342 0
-368 -327 -342 0
368 -327 342 0
368 327 -342 0
-369 -364 0
-369 368 0
369 364 -368 0
-370 -367 0
-370 -369 0
370 367 369 0
-371 333 343 0
-371 -333 -343 0
371 -333 343 0
371 333 -343 0
-372 371 -370 0
-372 -371 370 0
372 -371 -370 0
372 371 370 0
-373 333 0
-373 343 0
373 -333 -343 0
-374 333 343 0
-374 -333 -343 0
374 -333 343 0
374 333 -343 0
-375 -370 0
-375 374 0
375 370 -374 0
-376 -373 0
-376 -375 0
376 373 375 0
-377 2 0
-377 21 0
377 -2 -21 0
-378 3 0
-378 21 0
378 -3 -21 0
-379 4 0
-379 21 0
379 -4 -21 0
-380 5 0
-380 21 0
380 -5 -21 0
-381 6 0
-381 21 0
381 -6 -21 0
-382 348 377 0
-382 -348 -377 0
382 -348 377 0
382 348 -377 0
-383 348 0
-383 377 0
383 -348 -377 0
-384 348 377 0
-384 -348 -377 0
384 -348 377 0
384 348 -377 0
-385 354 378 0
-385 -354 -378 0
385 -354 378 0
385 354 -378 0
-386 385 383 0
-386 -385 -383 0
386 -385 383 0
386 385 -383 0
-387 354 0
-387 378 0
387 -354 -378 0
-388 354 378 0
-388 -354 -378 0
388 -354 378 0
388 354 -378 0
-389 383 0
-389 388 0
389 -383 -388 0
-390 -387 0
-390 -389 0
390 387 389 0
-391 360 379 0
-391 -360 -379 0
391 -360 379 0
391 360 -379 0
-392 391 -390 0
-392 -391 390 0
392 -391 -390 0
392 391 390 0
-393 360 0
-393 379 0
393 -360 -379 0
-394 360 379 0
-394 -360 -379 0
394 -360 379 0
394 360 -379 0
-395 -390 0
-395 394 0
395 390 -394 0
-396 -393 0
-396 -395 0
396 393 395 0
-397 366 380 0
-397 -366 -380 0
397 -366 380 0
397 366 -380 0
-398 397 -396 0
-398 -397 396 0
398 -397 -396 0
398 397 396 0
-399 366 0
-399 380 0
399 -366 -380 0
-400 366 380 0
-400 -366 -380 0
400 -366 380 0
400 366 -380 0
-401 -396 0
-401 400 0
401 396 -400 0
-402 -399 0
-402 -401 0
402 399 401 0
-403 372 381 0
-403 -372 -381 0
403 -372 381 0
403 372 -381 0
-404 403 -402 0
-404 -403 402 0
404 -403 -402 0
404 403 402 0
-405 372 0
-405 381 0
405 -372 -381 0
-406 372 381 0
-406 -372 -381 0
406 -372 381 0
406 372 -381 0
-407 -402 0
-407 406 0
407 402 -406 0
-408 -405 0
-408 -407 0
408 405 407 0
-409 2 0
-409 22 0
409 -2 -22 0
-410 3 0
-410 22 0
410 -3 -22 0
-411 4 0
-411 22 0
411 -4 -22 0
-412 5 0
-412 22 0
412 -5 -22 0
-413 386 409 0
-413 -386 -409 0
413 -386 409 0
413 386 -409 0
-414 386 0
-414 409 0
414 -386 -409 0
-415 386 409 0
-415 -386 -409 0
415 -386 409 0
415 386 -409 0
-416 392 410 0
-416 -392 -410 0
416 -392 410 0
416 392 -410 0
-417 416 414 0
-417 -416 -414 0
417 -416 414 0
417 416 -414 0
-418 392 0
-418 410 0
418 -392 -410 0
-419 392 410 0
-419 -392 -410 0
419 -392 410 0
419 392 -410 0
-420 414 0
-420 419 0
420 -414 -419 0
-421 -418 0
-421 -420 0
421 418 420 0
-422 398 411 0
-422 -398 -411 0
422 -398 411 0
422 398 -411 0
-423 422 -421 0
-423 -422 421 0
423 -422 -421 0
423 422 421 0
-424 398 0
-424 411 0
424 -398 -411 0
-425 398 411 0
-425 -398 -411 0
425 -398 411 0
425 398 -411 0
-426 -421 0
-426 425 0
426 421 -425 0
-427 -424 0
-427 -426 0
427 424 426 0
-428 404 412 0
-428 -404 -412 0
428 -404 412 0
428 404 -412 0
-429 428 -427 0
-429 -428 427 0
429 -428 -427 0
429 428 427 0
-430 404 0
-430 412 0
430 -404 -412 0
-431 404 412 0
-431 -404 -412 0
431 -404 412 0
431 404 -412 0
-432 -427 0
-432 431 0
432 427 -431 0
-433 -430 0
-433 -432 0
433 430 432 0
-434 2 0
-434 23 0
434 -2 -23 0
-435 3 0
-435 23 0
435 -3 -23 0
-436 4 0
-436 23 0
436 -4 -23 0
-437 417 434 0
-437 -417 -434 0
437 -417 434 0
437 417 -434 0
-438 417 0
-438 434 0
438 -417 -434 0
-439 417 434 0
-439 -417 -434 0
439 -417 434 0
439 417 -434 0
-440 423 435 0
-440 -423 -435 0
440 -423 435 0
440 423 -435 0
-441 440 438 0
-441 -440 -438 0
441 -440 438 0
441 440 -438 0
-442 423 0
-442 435 0
442 -423 -435 0
-443 423 435 0
-443 -423 -435 0
443 -423 435 0
443 423 -435 0
-444 438 0
-444 443 0
444 -438 -443 0
-445 -442 0
-445 -444 0
445 442 444 0
-446 429 436 0
-446 -429 -436 0
446 -429 436 0
446 429 -436 0
-447 446 -445 0
-447 -446 445 0
447 -446 -445 0
447 446 445 0
-448 429 0
-448 436 0
448 -429 -436 0
-449 429 436 0
-449 -429 -436 0
449 -429 436 0
449 429 -436 0
-450 -445 0
-450 449 0
450 445 -449 0
-451 -448 0
-451 -450 0
451 448 450 0
-452 2 0
-452 24 0
452 -2 -24 0
-453 3 0
-453 24 0
453 -3 -24 0
-454 441 452 0
-454 -441 -452 0
454 -441 452 0
454 441 -452 0
-455 441 0
-455 452 0
455 -441 -452 0
-456 441 452 0
-456 -441 -452 0
456 -441 452 0
456 441 -452 0
-457 447 453 0
-457 -447 -453 0
457 -447 453 0
457 447 -453 0
-458 457 455 0
-458 -457 -455 0
458 -457 455 0
458 457 -455 0
-459 447 0
-459 453 0
459 -447 -453 0
-460 447 453 0
-460 -447 -453 0
460 -447 453 0
460 447 -453 0
-461 455 0
-461 460 0
461 -455 -460 0
-462 -459 0
-462 -461 0
462 459 461 0
-463 2 0
-463 25 0
463 -2 -25 0
-464 458 463 0
-464 -458 -463 0
464 -458 463 0
464 458 -463 0
-465 458 0
-465 463 0
465 -458 -463 0
-466 458 463 0
-466 -458 -463 0
466 -458 463 0
466 458 -463 0
-467 14 0
-467 2 0
467 -14 -2 0
-468 15 0
-468 2 0
468 -15 -2 0
-469 16 0
-469 2 0
469 -16 -2 0
-470 17 0
-470 2 0
470 -17 -2 0
-471 18 0
-471 2 0
471 -18 -2 0
-472 19 0
-472 2 0
472 -19 -2 0
-473 20 0
-473 2 0
473 -20 -2 0
-474 21 0
-474 2 0
474 -21 -2 0
-475 22 0
-475 2 0
475 -22 -2 0
-476 23 0
-476 2 0
476 -23 -2 0
-477 24 0
-477 2 0
477 -24 -2 0
-478 25 0
-478 2 0
478 -25 -2 0
-479 14 0
-479 3 0
479 -14 -3 0
-480 15 0
-480 3 0
480 -15 -3 0
-481 16 0
-481 3 0
481 -16 -3 0
-482 17 0
-482 3 0
482 -17 -3 0
-483 18 0
-483 3 0
483 -18 -3 0
-484 19 0
-484 3 0
484 -19 -3 0
-485 20 0
-485 3 0
485 -20 -3 0
-486 21 0
-486 3 0
486 -21 -3 0
-487 22 0
-487 3 0
487 -22 -3 0
-488 23 0
-488 3 0
488 -23 -3 0
-489 24 0
-489 3 0
489 -24 -3 0
-490 468 479 0
-490 -468 -479 0
490 -468 479 0
490 468 -479 0
-491 468 0
-491 479 0
491 -468 -479 0
-492 468 479 0
-492 -468 -479 0
492 -468 479 0
492 468 -479 0
-493 469 480 0
-493 -469 -480 0
493 -469 480 0
493 469 -480 0
-494 493 491 0
-494 -493 -491 0
494 -493 491 0
494 493 -491 0
-495 469 0
-495 480 0
495 -469 -480 0
-496 469 480 0
-496 -469 -480 0
496 -469 480 0
496 469 -480 0
-497 491 0
-497 496 0
497 -491 -496 0
-498 -495 0
-498 -497 0
498 495 497 0
-499 470 481 0
-499 -470 -481 0
499 -470 481 0
499 470 -481 0
-500 499 -498 0
-500 -499 498 0
500 -499 -498 0
500 499 498 0
-501 470 0
-501 481 0
501 -470 -481 0
-502 470 481 0
-502 -470 -481 0
502 -470 481 0
502 470 -481 0
-503 -498 0
-503 502 0
503 498 -502 0
-504 -501 0
-504 -503 0
504 501 503 0
-505 471 482 0
-505 -471 -482 0
505 -471 482 0
505 471 -482 0
-506 505 -504 0
-506 -505 504 0
506 -505 -504 0
506 505 504 0
-507 471 0
-507 482 0
507 -471 -482 0
-508 471 482 0
-508 -471 -482 0
508 -471 482 0
508 471 -482 0
-509 -504 0
-509 508 0
509 504 -508 0
-510 -507 0
-510 -509 0
510 507 509 0
-511 472 483 0
-511 -472 -483 0
511 -472 483 0
511 472 -483 0
-512 511 -510 0
-512 -511 510 0
512 -511 -510 0
512 511 510 0
-513 472 0
-513 483 0
513 -472 -483 0
-514 472 483 0
-514 -472 -483 0
514 -472 483 0
514 472 -483 0
-515 -510 0
-515 514 0
515 510 -514 0
-516 -513 0
-516 -515 0
516 513 515 0
-517 473 484 0
-517 -473 -484 0
517 -473 484 0
517 473 -484 0
-518 517 -516 0
-518 -517 516 0
518 -517 -516 0
518 517 516 0
-519 473 0
-519 484 0
519 -473 -484 0
-520 473 484 0
-520 -473 -484 0
520 -473 484 0
520 473 -484 0
-521 -516 0
-521 520 0
521 516 -520 0
-522 -519 0
-522 -521 0
522 519 521 0
-523 474 485 0
-523 -474 -485 0
523 -474 485 0
523 474 -485 0
-524 523 -522 0
-524 -523 522 0
524 -523 -522 0
524 523 522 0
-525 474 0
-525 485 0
525 -474 -485 0
-526 474 485 0
-526 -474 -485 0
526 -474 485 0
526 474 -485 0
-527 -522 0
-527 526 0
527 522 -526 0
-528 -525 0
-528 -527 0
528 525 527 0
-529 475 486 0
-529 -475 -486 0
529 -475 486 0
529 475 -486 0
-530 529 -528 0
-530 -529 528 0
530 -529 -528 0
530 529 528 0
-531 475 0
-531 486 0
531 -475 -486 0
-532 475 486 0
-532 -475 -486 0
532 -475 486 0
532 475 -486 0
-533 -528 0
-533 532 0
533 528 -532 0
-534 -531 0
-534 -533 0
534 531 533 0
-535 476 487 0
-535 -476 -487 0
535 -476 487 0
535 476 -487 0
-536 535 -534 0
-536 -535 534 0
536 -535 -534 0
536 535 534 0
-537 476 0
-537 487 0
537 -476 -487 0
-538 476 487 0
-538 -476 -487 0
538 -476 487 0
538 476 -487 0
-539 -534 0
-539 538 0
539 534 -538 0
-540 -537 0
-540 -539 0
540 537 539 0
-541 477 488 0
-541 -477 -488 0
541 -477 488 0
541 477 -488 0
-542 541 -540 0
-542 -541 540 0
542 -541 -540 0
542 541 540 0
-543 477 0
-543 488 0
543 -477 -488 0
-544 477 488 0
-544 -477 -488 0
544 -477 488 0
544 477 -488 0
-545 -540 0
-545 544 0
545 540 -544 0
-546 -543 0
-546 -545 0
546 543 545 0
-547 478 489 0
-547 -478 -489 0
547 -478 489 0
547 478 -489 0
-548 547 -546 0
-548 -547 546 0
548 -547 -546 0
548 547 546 0
-549 478 0
-549 489 0
549 -478 -489 0
-550 478 489 0
-550 -478 -489 0
550 -478 489 0
550 478 -489 0
-551 -546 0
-551 550 0
551 546 -550 0
-552 -549 0
-552 -551 0
552 549 551 0
-553 14 0
-553 4 0
553 -14 -4 0
-554 15 0
-554 4 0
554 -15 -4 0
-555 16 0
-555 4 0
555 -16 -4 0
-556 17 0
-556 4 0
556 -17 -4 0
-557 18 0
-557 4 0
557 -18 -4 0
-558 19 0
-558 4 0
558 -19 -4 0
-559 20 0
-559 4 0
559 -20 -4 0
-560 21 0
-560 4 0
560 -21 -4 0
-561 22 0
-561 4 0
561 -22 -4 0
-562 23 0
-562 4 0
562 -23 -4 0
-563 494 553 0
-563 -494 -553 0
563 -494 553 0
563 494 -553 0
-564 494 0
-564 553 0
564 -494 -553 0
-565 494 553 0
-565 -494 -553 0
565 -494 553 0
565 494 -553 0
-566 500 554 0
-566 -500 -554 0
566 -500 554 0
566 500 -554 0
-567 566 564 0
-567 -566 -564 0
567 -566 564 0
567 566 -564 0
-568 500 0
-568 554 0
568 -500 -554 0
-569 500 554 0
-569 -500 -554 0
569 -500 554 0
569 500 -554 0
-570 564 0
-570 569 0
570 -564 -569 0
-571 -568 0
-571 -570 0
571 568 570 0
-572 506 555 0
-572 -506 -555 0
572 -506 555 0
572 506 -555 0
-573 572 -571 0
-573 -572 571 0
573 -572 -571 0
573 572 571 0
-574 506 0
-574 555 0
574 -506 -555 0
-575 506 555 0
-575 -506 -555 0
575 -506 555 0
575 506 -555 0
-576 -571 0
-576 575 0
576 571 -575 0
-577 -574 0
-577 -576 0
577 574 576 0
-578 512 556 0
-578 -512 -556 0
578 -512 556 0
578 512 -556 0
-579 578 -577 0
-579 -578 577 0
579 -578 -577 0
579 578 577 0
-580 512 0
-580 556 0
580 -512 -556 0
-581 512 556 0
-581 -512 -556 0
581 -512 556 0
581 512 -556 0
-582 -577 0
-582 581 0
582 577 -581 0
-583 -580 0
-583 -582 0
583 580 582 0
-584 518 557 0
-584 -518 -557 0
584 -518 557 0
584 518 -557 0
-585 584 -583 0
-585 -584 583 0
585 -584 -583 0
585 584 583 0
-586 518 0
-586 557 0
586 -518 -557 0
-587 518 557 0
-587 -518 -557 0
587 -518 557 0
587 518 -557 0
-588 -583 0
-588 587 0
588 583 -587 0
-589 -586 0
-589 -588 0
589 586 588 0
-590 524 558 0
-590 -524 -558 0
590 -524 558 0
590 524 -558 0
-591 590 -589 0
-591 -590 589 0
591 -590 -589 0
591 590 589 0
-592 524 0
-592 558 0
592 -524 -558 0
-593 524 558 0
-593 -524 -558 0
593 -524 558 0
593 524 -558 0
-594 -589 0
-594 593 0
594 589 -593 0
-595 -592 0
-595 -594 0
595 592 594 0
-596 530 559 0
-596 -530 -559 0
596 -530 559 0
596 530 -559 0
-597 596 -595 0
-597 -596 595 0
597 -596 -595 0
597 596 595 0
-598 530 0
-598 559 0
598 -530 -559 0
-599 530 559 0
-599 -530 -559 0
599 -530 559 0
599 530 -559 0
-600 -595 0
-600 599 0
600 595 -599 0
-601 -598 0
-601 -600 0
601 598 600 0
-602 536 560 0
-602 -536 -560 0
602 -536 560 0
602 536 -560 0
-603 602 -601 0
-603 -602 601 0
603 -602 -601 0
603 602 601 0
-604 536 0
-604 560 0
604 -536 -560 0
-605 536 560 0
-605 -536 -560 0
605 -536 560 0
605 536 -560 0
-606 -601 0
-606 605 0
606 601 -605 0
-607 -604 0
-607 -606 0
607 604 606 0
-608 542 561 0
-608 -542 -561 0
608 -542 561 0
608 542 -561 0
-609 608 -607 0
-609 -608 607 0
609 -608 -607 0
609 608 607 0
-610 542 0
-610 561 0
610 -542 -561 0
-611 542 561 0
-611 -542 -561 0
611 -542 561 0
611 542 -561 0
-612 -607 0
-612 611 0
612 607 -611 0
-613 -610 0
-613 -612 0
613 610 612 0
-614 548 562 0
-614 -548 -562 0
614 -548 562 0
614 548 -562 0
-615 614 -613 0
-615 -614 613 0
615 -614 -613 0
615 614 613 0
-616 548 0
-616 562 0
616 -548 -562 0
-617 548 562 0
-617 -548 -562 0
617 -548 562 0
617 548 -562 0
-618 -613 0
-618 617 0
618 613 -617 0
-619 -616 0
-619 -618 0
619 616 618 0
-620 14 0
-620 5 0
620 -14 -5 0
-621 15 0
-621 5 0
621 -15 -5 0
-622 16 0
-622 5 0
622 -16 -5 0
-623 17 0
-623 5 0
623 -17 -5 0
-624 18 0
-624 5 0
624 -18 -5 0
-625 19 0
-625 5 0
625 -19 -5 0
-626 20 0
-626 5 0
626 -20 -5 0
-627 21 0
-627 5 0
627 -21 -5 0
-628 22 0
-628 5 0
628 -22 -5 0
-629 567 620 0
-629 -567 -620 0
629 -567 620 0
629 567 -620 0
-630 567 0
-630 620 0
630 -567 -620 0
-631 567 620 0
-631 -567 -620 0
631 -567 620 0
631 567 -620 0
-632 573 621 0
-632 -573 -621 0
632 -573 621 0
632 573 -621 0
-633 632 630 0
-633 -632 -630 0
633 -632 630 0
633 632 -630 0
-634 573 0
-634 621 0
634 -573 -621 0
-635 573 621 0
-635 -573 -621 0
635 -573 621 0
635 573 -621 0
-636 630 0
-636 635 0
636 -630 -635 0
-637 -634 0
-637 -636 0
637 634 636 0
-638 579 622 0
-638 -579 -622 0
638 -579 622 0
638 579 -622 0
-639 638 -637 0
-639 -638 637 0
639 -638 -637 0
639 638 637 0
-640 579 0
-640 622 0
640 -579 -622 0
-641 579 622 0
-641 -579 -622 0
641 -579 622 0
641 579 -622 0
-642 -637 0
-642 641 0
642 637 -641 0
-643 -640 0
-643 -642 0
643 640 642 0
-644 585 623 0
-644 -585 -623 0
644 -585 623 0
644 585 -623 0
-645 644 -643 0
-645 -644 643 0
645 -644 -643 0
645 644 643 0
-646 585 0
-646 623 0
646 -585 -623 0
-647 585 623 0
-647 -585 -623 0
647 -585 623 0
647 585 -623 0
-648 -643 0
-648 647 0
648 643 -647 0
-649 -646 0
-649 -648 0
649 646 648 0
-650 591 624 0
-650 -591 -624 0
650 -591 624 0
650 591 -624 0
-651 650 -649 0
-651 -650 649 0
651 -650 -649 0
651 650 649 0
-652 591 0
-652 624 0
652 -591 -624 0
-653 591 624 0
-653 -591 -624 0
653 -591 624 0
653 591 -624 0
-654 -649 0
-654 653 0
654 649 -653 0
-655 -652 0
-655 -654 0
655 652 654 0
-656 597 625 0
-656 -597 -625 0
656 -597 625 0
656 597 -625 0
-657 656 -655 0
-657 -656 655 0
657 -656 -655 0
657 656 655 0
-658 597 0
-658 625 0
658 -597 -625 0
-659 597 625 0
-659 -597 -625 0
659 -597 625 0
659 597 -625 0
-660 -655 0
-660 659 0
660 655 -659 0
-661 -658 0
-661 -660 0
661 658 660 0
-662 603 626 0
-662 -603 -626 0
662 -603 626 0
662 603 -626 0
-663 662 -661 0
-663 -662 661 0
663 -662 -661 0
663 662 661 0
-664 603 0
-664 626 0
664 -603 -626 0
-665 603 626 0
-665 -603 -626 0
665 -603 626 0
665 603 -626 0
-666 -661 0
-666 665 0
666 661 -665 0
-667 -664 0
-667 -666 0
667 664 666 0
-668 609 627 0
-668 -609 -627 0
668 -609 627 0
668 609 -627 0
-669 668 -667 0
-669 -668 667 0
669 -668 -667 0
669 668 667 0
-670 609 0
-670 627 0
670 -609 -627 0
-671 609 627 0
-671 -609 -627 0
671 -609 627 0
671 609 -627 0
-672 -667 0
-672 671 0
672 667 -671 0
-673 -670 0
-673 -672 0
673 670 672 0
-674 615 628 0
-674 -615 -628 0
674 -615 628 0
674 615 -628 0
-675 674 -673 0
-675 -674 673 0
675 -674 -673 0
675 674 673 0
-676 615 0
-676 628 0
676 -615 -628 0
-677 615 628 0
-677 -615 -628 0
677 -615 628 0
677 615 -628 0
-678 -673 0
-678 677 0
678 673 -677 0
-679 -676 0
-679 -678 0
679 676 678 0
-680 14 0
-680 6 0
680 -14 -6 0
-681 15 0
-681 6 0
681 -15 -6 0
-682 16 0
-682 6 0
682 -16 -6 0
-683 17 0
-683 6 0
683 -17 -6 0
-684 18 0
-684 6 0
684 -18 -6 0
-685 19 0
-685 6 0
685 -19 -6 0
-686 20 0
-686 6 0
686 -20 -6 0
-687 21 0
-687 6 0
687 -21 -6 0
-688 633 680 0
-688 -633 -680 0
688 -633 680 0
688 633 -680 0
-689 633 0
-689 680 0
689 -633 -680 0
-690 633 680 0
-690 -633 -680 0
690 -633 680 0
690 633 -680 0
-691 639 681 0
-691 -639 -681 0
691 -639 681 0
691 639 -681 0
-692 691 689 0
-692 -691 -689 0
692 -691 689 0
692 691 -689 0
-693 639 0
-693 681 0
693 -639 -681 0
-694 639 681 0
-694 -639 -681 0
694 -639 681 0
694 639 -681 0
-695 689 0
-695 694 0
695 -689 -694 0
-696 -693 0
-696 -695 0
696 693 695 0
-697 645 682 0
-697 -645 -682 0
697 -645 682 0
697 645 -682 0
-698 697 -696 0
-698 -697 696 0
698 -697 -696 0
698 697 696 0
-699 645 0
-699 682 0
699 -645 -682 0
-700 645 682 0
-700 -645 -682 0
700 -645 682 0
700 645 -682 0
-701 -696 0
-701 700 0
701 696 -700 0
-702 -699 0
-702 -701 0
702 699 701 0
-703 651 683 0
-703 -651 -683 0
703 -651 683 0
703 651 -683 0
-704 703 -702 0
-704 -703 702 0
704 -703 -702 0
704 703 702 0
-705 651 0
-705 683 0
705 -651 -683 0
-706 651 683 0
-706 -651 -683 0
706 -651 683 0
706 651 -683 0
-707 -702 0
-707 706 0
707 702 -706 0
-708 -705 0
-708 -707 0
708 705 707 0
-709 657 684 0
-709 -657 -684 0
709 -657 684 0
709 657 -684 0
-710 709 -708 0
-710 -709 708 0
710 -709 -708 0
710 709 708 0
-711 657 0
-711 684 0
711 -657 -684 0
-712 657 684 0
-712 -657 -684 0
712 -657 684 0
712 657 -684 0
-713 -708 0
-713 712 0
713 708 -712 0
-714 -711 0
-714 -713 0
714 711 713 0
-715 663 685 0
-715 -663 -685 0
715 -663 685 0
715 663 -685 0
-716 715 -714 0
-716 -715 714 0
716 -715 -714 0
716 715 714 0
-717 663 0
-717 685 0
717 -663 -685 0
-718 663 685 0
-718 -663 -685 0
718 -663 685 0
718 663 -685 0
-719 -714 0
-719 718 0
719 714 -718 0
-720 -717 0
-720 -719 0
720 717 719 0
-721 669 686 0
-721 -669 -686 0
721 -669 686 0
721 669 -686 0
-722 721 -720 0
-722 -721 720 0
722 -721 -720 0
722 721 720 0
-723 669 0
-723 686 0
723 -669 -686 0
-724 669 686 0
-724 -669 -686 0
724 -669 686 0
724 669 -686 0
-725 -720 0
-725 724 0
725 720 -724 0
-726 -723 0
-726 -725 0
726 723 725 0
-727 675 687 0
-727 -675 -687 0
727 -675 687 0
727 675 -687 0
-728 727 -726 0
-728 -727 726 0
728 -727 -726 0
728 727 726 0
-729 675 0
-729 687 0
729 -675 -687 0
-730 675 687 0
-730 -675 -687 0
730 -675 687 0
730 675 -687 0
-731 -726 0
-731 730 0
731 726 -730 0
-732 -729 0
-732 -731 0
732 729 731 0
-733 14 0
-733 7 0
733 -14 -7 0
-734 15 0
-734 7 0
734 -15 -7 0
-735 16 0
-735 7 0
735 -16 -7 0
-736 17 0
-736 7 0
736 -17 -7 0
-737 18 0
-737 7 0
737 -18 -7 0
-738 19 0
-738 7 0
738 -19 -7 0
-739 20 0
-739 7 0
739 -20 -7 0
-740 692 733 0
-740 -692 -733 0
740 -692 733 0
740 692 -733 0
-741 692 0
-741 733 0
741 -692 -733 0
-742 692 733 0
-742 -692 -733 0
742 -692 733 0
742 692 -733 0
-743 698 734 0
-743 -698 -734 0
743 -698 734 0
743 698 -734 0
-744 743 741 0
-744 -743 -741 0
744 -743 741 0
744 743 -741 0
-745 698 0
-745 734 0
745 -698 -734 0
-746 698 734 0
-746 -698 -734 0
746 -698 734 0
746 698 -734 0
-747 741 0
-747 746 0
747 -741 -746 0
-748 -745 0
-748 -747 0
748 745 747 0
-749 704 735 0
-749 -704 -735 0
749 -704 735 0
749 704 -735 0
-750 749 -748 0
-750 -749 748 0
750 -749 -748 0
750 749 748 0
-751 704 0
-751 735 0
751 -704 -735 0
-752 704 735 0
-752 -704 -735 0
752 -704 735 0
752 704 -735 0
-753 -748 0
-753 752 0
753 748 -752 0
-754 -751 0
-754 -753 0
754 751 753 0
-755 710 736 0
-755 -710 -736 0
755 -710 736 0
755 710 -736 0
-756 755 -754 0
-756 -755 754 0
756 -755 -754 0
756 755 754 0
-757 710 0
-757 736 0
757 -710 -736 0
-758 710 736 0
-758 -710 -736 0
758 -710 736 0
758 710 -736 0
-759 -754 0
-759 758 0
759 754 -758 0
-760 -757 0
-760 -759 0
760 757 759 0
-761 716 737 0
-761 -716 -737 0
761 -716 737 0
761 716 -737 0
-762 761 -760 0
-762 -761 760 0
762 -761 -760 0
762 761 760 0
-763 716 0
-763 737 0
763 -716 -737 0
-764 716 737 0
-764 -716 -737 0
764 -716 737 0
764 716 -737 0
-765 -760 0
-765 764 0
765 760 -764 0
-766 -763 0
-766 -765 0
766 763 765 0
-767 722 738 0
-767 -722 -738 0
767 -722 738 0
767 722 -738 0
-768 767 -766 0
-768 -767 766 0
768 -767 -766 0
768 767 766 0
-769 722 0
-769 738 0
769 -722 -738 0
-770 722 738 0
-770 -722 -738 0
770 -722 738 0
770 722 -738 0
-771 -766 0
-771 770 0
771 766 -770 0
-772 -769 0
-772 -771 0
772 769 771 0
-773 728 739 0
-773 -728 -739 0
773 -728 739 0
773 728 -739 0
-774 773 -772 0
-774 -773 772 0
774 -773 -772 0
774 773 772 0
-775 728 0
-775 739 0
775 -728 -739 0
-776 728 739 0
-776 -728 -739 0
776 -728 739 0
776 728 -739 0
-777 -772 0
-777 776 0
777 772 -776 0
-778 -775 0
-778 -777 0
778 775 777 0
-779 14 0
-779 8 0
779 -14 -8 0
-780 15 0
-780 8 0
780 -15 -8 0
-781 16 0
-781 8 0
781 -16 -8 0
-782 17 0
-782 8 0
782 -17 -8 0
-783 18 0
-783 8 0
783 -18 -8 0
-784 19 0
-784 8 0
784 -19 -8 0
-785 744 779 0
-785 -744 -779 0
785 -744 779 0
785 744 -779 0
-786 744 0
-786 779 0
786 -744 -779 0
-787 744 779 0
-787 -744 -779 0
787 -744 779 0
787 744 -779 0
-788 750 780 0
-788 -750 -780 0
788 -750 780 0
788 750 -780 0
-789 788 786 0
-789 -788 -786 0
789 -788 786 0
789 788 -786 0
-790 750 0
-790 780 0
790 -750 -780 0
-791 750 780 0
-791 -750 -780 0
791 -750 780 0
791 750 -780 0
-792 786 0
-792 791 0
792 -786 -791 0
-793 -790 0
-793 -792 0
793 790 792 0
-794 756 781 0
-794 -756 -781 0
794 -756 781 0
794 756 -781 0
-795 794 -793 0
-795 -794 793 0
795 -794 -793 0
795 794 793 0
-796 756 0
-796 781 0
796 -756 -781 0
-797 756 781 0
-797 -756 -781 0
797 -756 781 0
797 756 -781 0
-798 -793 0
-798 797 0
798 793 -797 0
-799 -796 0
-799 -798 0
799 796 798 0
-800 762 782 0
-800 -762 -782 0
800 -762 782 0
800 762 -782 0
-801 800 -799 0
-801 -800 799 0
801 -800 -799 0
801 800 799 0
-802 762 0
-802 782 0
802 -762 -782 0
-803 762 782 0
-803 -762 -782 0
803 -762 782 0
803 762 -782 0
-804 -799 0
-804 803 0
804 799 -803 0
-805 -802 0
-805 -804 0
805 802 804 0
-806 768 783 0
-806 -768 -783 0
806 -768 783 0
806 768 -783 0
-807 806 -805 0
-807 -806 805 0
807 -806 -805 0
807 806 805 0
-808 768 0
-808 783 0
808 -768 -783 0
-809 768 783 0
-809 -768 -783 0
809 -768 783 0
809 768 -783 0
-810 -805 0
-810 809 0
810 805 -809 0
-811 -808 0
-811 -810 0
811 808 810 0
-812 774 784 0
-812 -774 -784 0
812 -774 784 0
812 774 -784 0
-813 812 -811 0
-813 -812 811 0
813 -812 -811 0
813 812 811 0
-814 774 0
-814 784 0
814 -774 -784 0
-815 774 784 0
-815 -774 -784 0
815 -774 784 0
815 774 -784 0
-816 -811 0
-816 815 0
816 811 -815 0
-817 -814 0
-817 -816 0
817 814 816 0
-818 14 0
-818 9 0
818 -14 -9 0
-819 15 0
-819 9 0
819 -15 -9 0
-820 16 0
-820 9 0
820 -16 -9 0
-821 17 0
-821 9 0
821 -17 -9 0
-822 18 0
-822 9 0
822 -18 -9 0
-823 789 818 0
-823 -789 -818 0
823 -789 818 0
823 789 -818 0
-824 789 0
-824 818 0
824 -789 -818 0
-825 789 818 0
-825 -789 -818 0
825 -789 818 0
825 789 -818 0
-826 795 819 0
-826 -795 -819 0
826 -795 819 0
826 795 -819 0
-827 826 824 0
-827 -826 -824 0
827 -826 824 0
827 826 -824 0
-828 795 0
-828 819 0
828 -795 -819 0
-829 795 819 0
-829 -795 -819 0
829 -795 819 0
829 795 -819 0
-830 824 0
-830 829 0
830 -824 -829 0
-831 -828 0
-831 -830 0
831 828 830 0
-832 801 820 0
-832 -801 -820 0
832 -801 820 0
832 801 -820 0
-833 832 -831 0
-833 -832 831 0
833 -832 -831 0
833 832 831 0
-834 801 0
-834 820 0
834 -801 -820 0
-835 801 820 0
-835 -801 -820 0
835 -801 820 0
835 801 -820 0
-836 -831 0
-836 835 0
836 831 -835 0
-837 -834 0
-837 -836 0
837 834 836 0
-838 807 821 0
-838 -807 -821 0
838 -807 821 0
838 807 -821 0
-839 838 -837 0
-839 -838 837 0
839 -838 -837 0
839 838 837 0
-840 807 0
-840 821 0
840 -807 -821 0
-841 807 821 0
-841 -807 -821 0
841 -807 821 0
841 807 -821 0
-842 -837 0
-842 841 0
842 837 -841 0
-843 -840 0
-843 -842 0
843 840 842 0
-844 813 822 0
-844 -813 -822 0
844 -813 822 0
844 813 -822 0
-845 844 -843 0
-845 -844 843 0
845 -844 -843 0
845 844 843 0
-846 813 0
-846 822 0
846 -813 -822 0
-847 813 822 0
-847 -813 -822 0
847 -813 822 0
847 813 -822 0
-848 -843 0
-848 847 0
848 843 -847 0
-849 -846 0
-849 -848 0
849 846 848 0
-850 14 0
-850 10 0
850 -14 -10 0
-851 15 0
-851 10 0
851 -15 -10 0
-852 16 0
-852 10 0
852 -16 -10 0
-853 17 0
-853 10 0
853 -17 -10 0
-854 827 850 0
-854 -827 -850 0
854 -827 850 0
854 827 -850 0
-855 827 0
-855 850 0
855 -827 -850 0
-856 827 850 0
-856 -827 -850 0
856 -827 850 0
856 827 -850 0
-857 833 851 0
-857 -833 -851 0
857 -833 851 0
857 833 -851 0
-858 857 855 0
-858 -857 -855 0
858 -857 855 0
858 857 -855 0
-859 833 0
-859 851 0
859 -833 -851 0
-860 833 851 0
-860 -833 -851 0
860 -833 851 0
860 833 -851 0
-861 855 0
-861 860 0
861 -855 -860 0
-862 -859 0
-862 -861 0
862 859 861 0
-863 839 852 0
-863 -839 -852 0
863 -839 852 0
863 839 -852 0
-864 863 -862 0
-864 -863 862 0
864 -863 -862 0
864 863 862 0
-865 839 0
-865 852 0
865 -839 -852 0
-866 839 852 0
-866 -839 -852 0
866 -839 852 0
866 839 -852 0
-867 -862 0
-867 866 0
867 862 -866 0
-868 -865 0
-868 -867 0
868 865 867 0
-869 845 853 0
-869 -845 -853 0
869 -845 853 0
869 845 -853 0
-870 869 -868 0
-870 -869 868 0
870 -869 -868 0
870 869 868 0
-871 845 0
-871 853 0
871 -845 -853 0
-872 845 853 0
-872 -845 -853 0
872 -845 853 0
872 845 -853 0
-873 -868 0
-873 872 0
873 868 -872 0
-874 -871 0
-874 -873 0
874 871 873 0
-875 14 0
-875 11 0
875 -14 -11 0
-876 15 0
-876 11 0
876 -15 -11 0
-877 16 0
-877 11 0
877 -16 -11 0
-878 858 875 0
-878 -858 -875 0
878 -858 875 0
878 858 -875 0
-879 858 0
-879 875 0
879 -858 -875 0
-880 858 875 0
-880 -858 -875 0
880 -858 875 0
880 858 -875 0
-881 864 876 0
-881 -864 -876 0
881 -864 876 0
881 864 -876 0
-882 881 879 0
-882 -881 -879 0
882 -881 879 0
882 881 -879 0
-883 864 0
-883 876 0
883 -864 -876 0
-884 864 876 0
-884 -864 -876 0
884 -864 876 0
884 864 -876 0
-885 879 0
-885 884 0
885 -879 -884 0
-886 -883 0
-886 -885 0
886 883 885 0
-887 870 877 0
-887 -870 -877 0
887 -870 877 0
887 870 -877 0
-888 887 -886 0
-888 -887 886 0
888 -887 -886 0
888 887 886 0
-889 870 0
-889 877 0
889 -870 -877 0
-890 870 877 0
-890 -870 -877 0
890 -870 877 0
890 870 -877 0
-891 -886 0
-891 890 0
891 886 -890 0
-892 -889 0
-892 -891 0
892 889 891 0
-893 14 0
-893 12 0
893 -14 -12 0
-894 15 0
-894 12 0
894 -15 -12 0
-895 882 893 0
-895 -882 -893 0
895 -882 893 0
895 882 -893 0
-896 882 0
-896 893 0
896 -882 -893 0
-897 882 893 0
-897 -882 -893 0
897 -882 893 0
897 882 -893 0
-898 888 894 0
-898 -888 -894 0
898 -888 894 0
898 888 -894 0
-899 898 896 0
-899 -898 -896 0
899 -898 896 0
899 898 -896 0
-900 888 0
-900 894 0
900 -888 -894 0
-901 888 894 0
-901 -888 -894 0
901 -888 894 0
901 888 -894 0
-902 896 0
-902 901 0
902 -896 -901 0
-903 -900 0
-903 -902 0
903 900 902 0
-904 14 0
-904 13 0
904 -14 -13 0
-905 899 904 0
-905 -899 -904 0
905 -899 904 0
905 899 -904 0
-906 899 0
-906 904 0
906 -899 -904 0
-907 899 904 0
-907 -899 -904 0
907 -899 904 0
907 899 -904 0
-908 26 467 0
-908 -26 -467 0
908 -26 467 0
908 26 -467 0
-909 49 490 0
-909 -49 -490 0
909 -49 490 0
909 49 -490 0
-910 122 563 0
-910 -122 -563 0
910 -122 563 0
910 122 -563 0
-911 188 629 0
-911 -188 -629 0
911 -188 629 0
911 188 -629 0
-912 247 688 0
-912 -247 -688 0
912 -247 688 0
912 247 -688 0
-913 299 740 0
-913 -299 -740 0
913 -299 740 0
913 299 -740 0
-914 344 785 0
-914 -344 -785 0
914 -344 785 0
914 344 -785 0
-915 382 823 0
-915 -382 -823 0
915 -382 823 0
915 382 -823 0
-916 413 854 0
-916 -413 -854 0
916 -413 854 0
916 413 -854 0
-917 437 878 0
-917 -437 -878 0
917 -437 878 0
917 437 -878 0
-918 454 895 0
-918 -454 -895 0
918 -454 895 0
918 454 -895 0
-919 464 905 0
-919 -464 -905 0
919 -464 905 0
919 464 -905 0
908 909 910 911 912 913 914 915 916 917 918 919 0
