p cnf 627 2082
1 0
-22 2 0
-22 12 0
22 -2 -12 0
-23 3 0
-23 12 0
23 -3 -12 0
-24 4 0
-24 12 0
24 -4 -12 0
-25 5 0
-25 12 0
25 -5 -12 0
-26 6 0
-26 12 0
26 -6 -12 0
-27 7 0
-27 12 0
27 -7 -12 0
-28 8 0
-28 12 0
28 -8 -12 0
-29 9 0
-29 12 0
29 -9 -12 0
-30 10 0
-30 12 0
30 -10 -12 0
-31 11 0
-31 12 0
31 -11 -12 0
-32 2 0
-32 13 0
32 -2 -13 0
-33 3 0
-33 13 0
33 -3 -13 0
-34 4 0
-34 13 0
34 -4 -13 0
-35 5 0
-35 13 0
35 -5 -13 0
-36 6 0
-36 13 0
36 -6 -13 0
-37 7 0
-37 13 0
37 -7 -13 0
-38 8 0
-38 13 0
38 -8 -13 0
-39 9 0
-39 13 0
39 -9 -13 0
-40 10 0
-40 13 0
40 -10 -13 0
-41 23 32 0
-41 -23 -32 0
41 -23 32 0
41 23 -32 0
-42 23 0
-42 32 0
42 -23 -32 0
-43 23 32 0
-43 -23 -32 0
43 -23 32 0
43 23 -32 0
-44 24 33 0
-44 -24 -33 0
44 -24 33 0
44 24 -33 0
-45 44 42 0
-45 -44 -42 0
45 -44 42 0
45 44 -42 0
-46 24 0
-46 33 0
46 -24 -33 0
-47 24 33 0
-47 -24 -33 0
47 -24 33 0
47 24 -33 0
-48 42 0
-48 47 0
48 -42 -47 0
-49 -46 0
-49 -48 0
49 46 48 0
-50 25 34 0
-50 -25 -34 0
50 -25 34 0
50 25 -34 0
-51 50 -49 0
-51 -50 49 0
51 -50 -49 0
51 50 49 0
-52 25 0
-52 34 0
52 -25 -34 0
-53 25 34 0
-53 -25 -34 0
53 -25 34 0
53 25 -34 0
-54 -49 0
-54 53 0
54 49 -53 0
-55 -52 0
-55 -54 0
55 52 54 0
-56 26 35 0
-56 -26 -35 0
56 -26 35 0
56 26 -35 0
-57 56 -55 0
-57 -56 55 0
57 -56 -55 0
57 56 55 0
-58 26 0
-58 35 0
58 -26 -35 0
-59 26 35 0
-59 -26 -35 0
59 -26 35 0
59 26 -35 0
-60 -55 0
-60 59 0
60 55 -59 0
-61 -58 0
-61 -60 0
61 58 60 0
-62 27 36 0
-62 -27 -36 0
62 -27 36 0
62 27 -36 0
-63 62 -61 0
-63 -62 61 0
63 -62 -61 0
63 62 61 0
-64 27 0
-64 36 0
64 -27 -36 0
-65 27 36 0
-65 -27 -36 0
65 -27 36 0
65 27 -36 0
-66 -61 0
-66 65 0
66 61 -65 0
-67 -64 0
-67 -66 0
67 64 66 0
-68 28 37 0
-68 -28 -37 0
68 -28 37 0
68 28 -37 0
-69 68 -67 0
-69 -68 67 0
69 -68 -67 0
69 68 67 0
-70 28 0
-70 37 0
70 -28 -37 0
-71 28 37 0
-71 -28 -37 0
71 -28 37 0
71 28 -37 0
-72 -67 0
-72 71 0
72 67 -71 0
-73 -70 0
-73 -72 0
73 70 72 0
-74 29 38 0
-74 -29 -38 0
74 -29 38 0
74 29 -38 0
-75 74 -73 0
-75 -74 73 0
75 -74 -73 0
75 74 73 0
-76 29 0
-76 38 0
76 -29 -38 0
-77 29 38 0
-77 -29 -38 0
77 -29 38 0
77 29 -38 0
-78 -73 0
-78 77 0
78 73 -77 0
-79 -76 0
-79 -78 0
79 76 78 0
-80 30 39 0
-80 -30 -39 0
80 -30 39 0
80 30 -39 0
-81 80 -79 0
-81 -80 79 0
81 -80 -79 0
81 80 79 0
-82 30 0
-82 39 0
82 -30 -39 0
-83 30 39 0
-83 -30 -39 0
83 -30 39 0
83 30 -39 0
-84 -79 0
-84 83 0
84 79 -83 0
-85 -82 0
-85 -84 0
85 82 84 0
-86 31 40 0
-86 -31 -40 0
86 -31 40 0
86 31 -40 0
-87 86 -85 0
-87 -86 85 0
87 -86 -85 0
87 86 85 0
-88 31 0
-88 40 0
88 -31 -40 0
-89 31 40 0
-89 -31 -40 0
89 -31 40 0
89 31 -40 0
-90 -85 0
-90 89 0
90 85 -89 0
-91 -88 0
-91 -90 0
91 88 90 0
-92 2 0
-92 14 0
92 -2 -14 0
-93 3 0
-93 14 0
93 -3 -14 0
-94 4 0
-94 14 0
94 -4 -14 0
-95 5 0
-95 14 0
95 -5 -14 0
-96 6 0
-96 14 0
96 -6 -14 0
-97 7 0
-97 14 0
97 -7 -14 0
-98 8 0
-98 14 0
98 -8 -14 0
-99 9 0
-99 14 0
99 -9 -14 0
-100 45 92 0
-100 -45 -92 0
100 -45 92 0
100 45 -92 0
-101 45 0
-101 92 0
101 -45 -92 0
-102 45 92 0
-102 -45 -92 0
102 -45 92 0
102 45 -92 0
-103 51 93 0
-103 -51 -93 0
103 -51 93 0
103 51 -93 0
-104 103 101 0
-104 -103 -101 0
104 -103 101 0
104 103 -101 0
-105 51 0
-105 93 0
105 -51 -93 0
-106 51 93 0
-106 -51 -93 0
106 -51 93 0
106 51 -93 0
-107 101 0
-107 106 0
107 -101 -106 0
-108 -105 0
-108 -107 0
108 105 107 0
-109 57 94 0
-109 -57 -94 0
109 -57 94 0
109 57 -94 0
-110 109 -108 0
-110 -109 108 0
110 -109 -108 0
110 109 108 0
-111 57 0
-111 94 0
111 -57 -94 0
-112 57 94 0
-112 -57 -94 0
112 -57 94 0
112 57 -94 0
-113 -108 0
-113 112 0
113 108 -112 0
-114 -111 0
-114 -113 0
114 111 113 0
-115 63 95 0
-115 -63 -95 0
115 -63 95 0
115 63 -95 0
-116 115 -114 0
-116 -115 114 0
116 -115 -114 0
116 115 114 0
-117 63 0
-117 95 0
117 -63 -95 0
-118 63 95 0
-118 -63 -95 0
118 -63 95 0
118 63 -95 0
-119 -114 0
-119 118 0
119 114 -118 0
-120 -117 0
-120 -119 0
120 117 119 0
-121 69 96 0
-121 -69 -96 0
121 -69 96 0
121 69 -96 0
-122 121 -120 0
-122 -121 120 0
122 -121 -120 0
122 121 120 0
-123 69 0
-123 96 0
123 -69 -96 0
-124 69 96 0
-124 -69 -96 0
124 -69 96 0
124 69 -96 0
-125 -120 0
-125 124 0
125 120 -124 0
-126 -123 0
-126 -125 0
126 123 125 0
-127 75 97 0
-127 -75 -97 0
127 -75 97 0
127 75 -97 0
-128 127 -126 0
-128 -127 126 0
128 -127 -126 0
128 127 126 0
-129 75 0
-129 97 0
129 -75 -97 0
-130 75 97 0
-130 -75 -97 0
130 -75 97 0
130 75 -97 0
-131 -126 0
-131 130 0
131 126 -130 0
-132 -129 0
-132 -131 0
132 129 131 0
-133 81 98 0
-133 -81 -98 0
133 -81 98 0
133 81 -98 0
-134 133 -132 0
-134 -133 132 0
134 -133 -132 0
134 133 132 0
-135 81 0
-135 98 0
135 -81 -98 0
-136 81 98 0
-136 -81 -98 0
136 -81 98 0
136 81 -98 0
-137 -132 0
-137 136 0
137 132 -136 0
-138 -135 0
-138 -137 0
138 135 137 0
-139 87 99 0
-139 -87 -99 0
139 -87 99 0
139 87 -99 0
-140 139 -138 0
-140 -139 138 0
140 -139 -138 0
140 139 138 0
-141 87 0
-141 99 0
141 -87 -99 0
-142 87 99 0
-142 -87 -99 0
142 -87 99 0
142 87 -99 0
-143 -138 0
-143 142 0
143 138 -142 0
-144 -141 0
-144 -143 0
144 141 143 0
-145 2 0
-145 15 0
145 -2 -15 0
-146 3 0
-146 15 0
146 -3 -15 0
-147 4 0
-147 15 0
147 -4 -15 0
-148 5 0
-148 15 0
148 -5 -15 0
-149 6 0
-149 15 0
149 -6 -15 0
-150 7 0
-150 15 0
150 -7 -15 0
-151 8 0
-151 15 0
151 -8 -15 0
-152 104 145 0
-152 -104 -145 0
152 -104 145 0
152 104 -145 0
-153 104 0
-153 145 0
153 -104 -145 0
-154 104 145 0
-154 -104 -145 0
154 -104 145 0
154 104 -145 0
-155 110 146 0
-155 -110 -146 0
155 -110 146 0
155 110 -146 0
-156 155 153 0
-156 -155 -153 0
156 -155 153 0
156 155 -153 0
-157 110 0
-157 146 0
157 -110 -146 0
-158 110 146 0
-158 -110 -146 0
158 -110 146 0
158 110 -146 0
-159 153 0
-159 158 0
159 -153 -158 0
-160 -157 0
-160 -159 0
160 157 159 0
-161 116 147 0
-161 -116 -147 0
161 -116 147 0
161 116 -147 0
-162 161 -160 0
-162 -161 160 0
162 -161 -160 0
162 161 160 0
-163 116 0
-163 147 0
163 -116 -147 0
-164 116 147 0
-164 -116 -147 0
164 -116 147 0
164 116 -147 0
-165 -160 0
-165 164 0
165 160 -164 0
-166 -163 0
-166 -165 0
166 163 165 0
-167 122 148 0
-167 -122 -148 0
167 -122 148 0
167 122 -148 0
-168 167 -166 0
-168 -167 166 0
168 -167 -166 0
168 167 166 0
-169 122 0
-169 148 0
169 -122 -148 0
-170 122 148 0
-170 -122 -148 0
170 -122 148 0
170 122 -148 0
-171 -166 0
-171 170 0
171 166 -170 0
-172 -169 0
-172 -171 0
172 169 171 0
-173 128 149 0
-173 -128 -149 0
173 -128 149 0
173 128 -149 0
-174 173 -172 0
-174 -173 172 0
174 -173 -172 0
174 173 172 0
-175 128 0
-175 149 0
175 -128 -149 0
-176 128 149 0
-176 -128 -149 0
176 -128 149 0
176 128 -149 0
-177 -172 0
-177 176 0
177 172 -176 0
-178 -175 0
-178 -177 0
178 175 177 0
-179 134 150 0
-179 -134 -150 0
179 -134 150 0
179 134 -150 0
-180 179 -178 0
-180 -179 178 0
180 -179 -178 0
180 179 178 0
-181 134 0
-181 150 0
181 -134 -150 0
-182 134 150 0
-182 -134 -150 0
182 -134 150 0
182 134 -150 0
-183 -178 0
-183 182 0
183 178 -182 0
-184 -181 0
-184 -183 0
184 181 183 0
-185 140 151 0
-185 -140 -151 0
185 -140 151 0
185 140 -151 0
-186 185 -184 0
-186 -185 184 0
186 -185 -184 0
186 185 184 0
-187 140 0
-187 151 0
187 -140 -151 0
-188 140 151 0
-188 -140 -151 0
188 -140 151 0
188 140 -151 0
-189 -184 0
-189 188 0
189 184 -188 0
-190 -187 0
-190 -189 0
190 187 189 0
-191 2 0
-191 16 0
191 -2 -16 0
-192 3 0
-192 16 0
192 -3 -16 0
-193 4 0
-193 16 0
193 -4 -16 0
-194 5 0
-194 16 0
194 -5 -16 0
-195 6 0
-195 16 0
195 -6 -16 0
-196 7 0
-196 16 0
196 -7 -16 0
-197 156 191 0
-197 -156 -191 0
197 -156 191 0
197 156 -191 0
-198 156 0
-198 191 0
198 -156 -191 0
-199 156 191 0
-199 -156 -191 0
199 -156 191 0
199 156 -191 0
-200 162 192 0
-200 -162 -192 0
200 -162 192 0
200 162 -192 0
-201 200 198 0
-201 -200 -198 0
201 -200 198 0
201 200 -198 0
-202 162 0
-202 192 0
202 -162 -192 0
-203 162 192 0
-203 -162 -192 0
203 -162 192 0
203 162 -192 0
-204 198 0
-204 203 0
204 -198 -203 0
-205 -202 0
-205 -204 0
205 202 204 0
-206 168 193 0
-206 -168 -193 0
206 -168 193 0
206 168 -193 0
-207 206 -205 0
-207 -206 205 0
207 -206 -205 0
207 206 205 0
-208 168 0
-208 193 0
208 -168 -193 0
-209 168 193 0
-209 -168 -193 0
209 -168 193 0
209 168 -193 0
-210 -205 0
-210 209 0
210 205 -209 0
-211 -208 0
-211 -210 0
211 208 210 0
-212 174 194 0
-212 -174 -194 0
212 -174 194 0
212 174 -194 0
-213 212 -211 0
-213 -212 211 0
213 -212 -211 0
213 212 211 0
-214 174 0
-214 194 0
214 -174 -194 0
-215 174 194 0
-215 -174 -194 0
215 -174 194 0
215 174 -194 0
-216 -211 0
-216 215 0
216 211 -215 0
-217 -214 0
-217 -216 0
217 214 216 0
-218 180 195 0
-218 -180 -195 0
218 -180 195 0
218 180 -195 0
-219 218 -217 0
-219 -218 217 0
219 -218 -217 0
219 218 217 0
-220 180 0
-220 195 0
220 -180 -195 0
-221 180 195 0
-221 -180 -195 0
221 -180 195 0
221 180 -195 0
-222 -217 0
-222 221 0
222 217 -221 0
-223 -220 0
-223 -222 0
223 220 222 0
-224 186 196 0
-224 -186 -196 0
224 -186 196 0
224 186 -196 0
-225 224 -223 0
-225 -224 223 0
225 -224 -223 0
225 224 223 0
-226 186 0
-226 196 0
226 -186 -196 0
-227 186 196 0
-227 -186 -196 0
227 -186 196 0
227 186 -196 0
-228 -223 0
-228 227 0
228 223 -227 0
-229 -226 0
-229 -228 0
229 226 228 0
-230 2 0
-230 17 0
230 -2 -17 0
-231 3 0
-231 17 0
231 -3 -17 0
-232 4 0
-232 17 0
232 -4 -17 0
-233 5 0
-233 17 0
233 -5 -17 0
-234 6 0
-234 17 0
234 -6 -17 0
-235 201 230 0
-235 -201 -230 0
235 -201 230 0
235 201 -230 0
-236 201 0
-236 230 0
236 -201 -230 0
-237 201 230 0
-237 -201 -230 0
237 -201 230 0
237 201 -230 0
-238 207 231 0
-238 -207 -231 0
238 -207 231 0
238 207 -231 0
-239 238 236 0
-239 -238 -236 0
239 -238 236 0
239 238 -236 0
-240 207 0
-240 231 0
240 -207 -231 0
-241 207 231 0
-241 -207 -231 0
241 -207 231 0
241 207 -231 0
-242 236 0
-242 241 0
242 -236 -241 0
-243 -240 0
-243 -242 0
243 240 242 0
-244 213 232 0
-244 -213 -232 0
244 -213 232 0
244 213 -232 0
-245 244 -243 0
-245 -244 243 0
245 -244 -243 0
245 244 243 0
-246 213 0
-246 232 0
246 -213 -232 0
-247 213 232 0
-247 -213 -232 0
247 -213 232 0
247 213 -232 0
-248 -243 0
-248 247 0
248 243 -247 0
-249 -246 0
-249 -248 0
249 246 248 0
-250 219 233 0
-250 -219 -233 0
250 -219 233 0
250 219 -233 0
-251 250 -249 0
-251 -250 249 0
251 -250 -249 0
251 250 249 0
-252 219 0
-252 233 0
252 -219 -233 0
-253 219 233 0
-253 -219 -233 0
253 -219 233 0
253 219 -233 0
-254 -249 0
-254 253 0
254 249 -253 0
-255 -252 0
-255 -254 0
255 252 254 0
-256 225 234 0
-256 -225 -234 0
256 -225 234 0
256 225 -234 0
-257 256 -255 0
-257 -256 255 0
257 -256 -255 0
257 256 255 0
-258 225 0
-258 234 0
258 -225 -234 0
-259 225 234 0
-259 -225 -234 0
259 -225 234 0
259 225 -234 0
-260 -255 0
-260 259 0
260 255 -259 0
-261 -258 0
-261 -260 0
261 258 260 0
-262 2 0
-262 18 0
262 -2 -18 0
-263 3 0
-263 18 0
263 -3 -18 0
-264 4 0
-264 18 0
264 -4 -18 0
-265 5 0
-265 18 0
265 -5 -18 0
-266 239 262 0
-266 -239 -262 0
266 -239 262 0
266 239 -262 0
-267 239 0
-267 262 0
267 -239 -262 0
-268 239 262 0
-268 -239 -262 0
268 -239 262 0
268 239 -262 0
-269 245 263 0
-269 -245 -263 0
269 -245 263 0
269 245 -263 0
-270 269 267 0
-270 -269 -267 0
270 -269 267 0
270 269 -267 0
-271 245 0
-271 263 0
271 -245 -263 0
-272 245 263 0
-272 -245 -263 0
272 -245 263 0
272 245 -263 0
-273 267 0
-273 272 0
273 -267 -272 0
-274 -271 0
-274 -273 0
274 271 273 0
-275 251 264 0
-275 -251 -264 0
275 -251 264 0
275 251 -264 0
-276 275 -274 0
-276 -275 274 0
276 -275 -274 0
276 275 274 0
-277 251 0
-277 264 0
277 -251 -264 0
-278 251 264 0
-278 -251 -264 0
278 -251 264 0
278 251 -264 0
-279 -274 0
-279 278 0
279 274 -278 0
-280 -277 0
-280 -279 0
280 277 279 0
-281 257 265 0
-281 -257 -265 0
281 -257 265 0
281 257 -265 0
-282 281 -280 0
-282 -281 280 0
282 -281 -280 0
282 281 280 0
-283 257 0
-283 265 0
283 -257 -265 0
-284 257 265 0
-284 -257 -265 0
284 -257 265 0
284 257 -265 0
-285 -280 0
-285 284 0
285 280 -284 0
-286 -283 0
-286 -285 0
286 283 285 0
-287 2 0
-287 19 0
287 -2 -19 0
-288 3 0
-288 19 0
288 -3 -19 0
-289 4 0
-289 19 0
289 -4 -19 0
-290 270 287 0
-290 -270 -287 0
290 -270 287 0
290 270 -287 0
-291 270 0
-291 287 0
291 -270 -287 0
-292 270 287 0
-292 -270 -287 0
292 -270 287 0
292 270 -287 0
-293 276 288 0
-293 -276 -288 0
293 -276 288 0
293 276 -288 0
-294 293 291 0
-294 -293 -291 0
294 -293 291 0
294 293 -291 0
-295 276 0
-295 288 0
295 -276 -288 0
-296 276 288 0
-296 -276 -288 0
296 -276 288 0
296 276 -288 0
-297 291 0
-297 296 0
297 -291 -296 0
-298 -295 0
-298 -297 0
298 295 297 0
-299 282 289 0
-299 -282 -289 0
299 -282 289 0
299 282 -289 0
-300 299 -298 0
-300 -299 298 0
300 -299 -298 0
300 299 298 0
-301 282 0
-301 289 0
301 -282 -289 0
-302 282 289 0
-302 -282 -289 0
302 -282 289 0
302 282 -289 0
-303 -298 0
-303 302 0
303 298 -302 0
-304 -301 0
-304 -303 0
304 301 303 0
-305 2 0
-305 20 0
305 -2 -20 0
-306 3 0
-306 20 0
306 -3 -20 0
-307 294 305 0
-307 -294 -305 0
307 -294 305 0
307 294 -305 0
-308 294 0
-308 305 0
308 -294 -305 0
-309 294 305 0
-309 -294 -305 0
309 -294 305 0
309 294 -305 0
-310 300 306 0
-310 -300 -306 0
310 -300 306 0
310 300 -306 0
-311 310 308 0
-311 -310 -308 0
311 -310 308 0
311 310 -308 0
-312 300 0
-312 306 0
312 -300 -306 0
-313 300 306 0
-313 -300 -306 0
313 -300 306 0
313 300 -306 0
-314 308 0
-314 313 0
314 -308 -313 0
-315 -312 0
-315 -314 0
315 312 314 0
-316 2 0
-316 21 0
316 -2 -21 0
-317 311 316 0
-317 -311 -316 0
317 -311 316 0
317 311 -316 0
-318 311 0
-318 316 0
318 -311 -316 0
-319 311 316 0
-319 -311 -316 0
319 -311 316 0
319 311 -316 0
-320 12 0
-320 2 0
320 -12 -2 0
-321 13 0
-321 2 0
321 -13 -2 0
-322 14 0
-322 2 0
322 -14 -2 0
-323 15 0
-323 2 0
323 -15 -2 0
-324 16 0
-324 2 0
324 -16 -2 0
-325 17 0
-325 2 0
325 -17 -2 0
-326 18 0
-326 2 0
326 -18 -2 0
-327 19 0
-327 2 0
327 -19 -2 0
-328 20 0
-328 2 0
328 -20 -2 0
-329 21 0
-329 2 0
329 -21 -2 0
-330 12 0
-330 3 0
330 -12 -3 0
-331 13 0
-331 3 0
331 -13 -3 0
-332 14 0
-332 3 0
332 -14 -3 0
-333 15 0
-333 3 0
333 -15 -3 0
-334 16 0
-334 3 0
334 -16 -3 0
-335 17 0
-335 3 0
335 -17 -3 0
-336 18 0
-336 3 0
336 -18 -3 0
-337 19 0
-337 3 0
337 -19 -3 0
-338 20 0
-338 3 0
338 -20 -3 0
-339 321 330 0
-339 -321 -330 0
339 -321 330 0
339 321 -330 0
-340 321 0
-340 330 0
340 -321 -330 0
-341 321 330 0
-341 -321 -330 0
341 -321 330 0
341 321 -330 0
-342 322 331 0
-342 -322 -331 0
342 -322 331 0
342 322 -331 0
-343 342 340 0
-343 -342 -340 0
343 -342 340 0
343 342 -340 0
-344 322 0
-344 331 0
344 -322 -331 0
-345 322 331 0
-345 -322 -331 0
345 -322 331 0
345 322 -331 0
-346 340 0
-346 345 0
346 -340 -345 0
-347 -344 0
-347 -346 0
347 344 346 0
-348 323 332 0
-348 -323 -332 0
348 -323 332 0
348 323 -332 0
-349 348 -347 0
-349 -348 347 0
349 -348 -347 0
349 348 347 0
-350 323 0
-350 332 0
350 -323 -332 0
-351 323 332 0
-351 -323 -332 0
351 -323 332 0
351 323 -332 0
-352 -347 0
-352 351 0
352 347 -351 0
-353 -350 0
-353 -352 0
353 350 352 0
-354 324 333 0
-354 -324 -333 0
354 -324 333 0
354 324 -333 0
-355 354 -353 0
-355 -354 353 0
355 -354 -353 0
355 354 353 0
-356 324 0
-356 333 0
356 -324 -333 0
-357 324 333 0
-357 -324 -333 0
357 -324 333 0
357 324 -333 0
-358 -353 0
-358 357 0
358 353 -357 0
-359 -356 0
-359 -358 0
359 356 358 0
-360 325 334 0
-360 -325 -334 0
360 -325 334 0
360 325 -334 0
-361 360 -359 0
-361 -360 359 0
361 -360 -359 0
361 360 359 0
-362 325 0
-362 334 0
362 -325 -334 0
-363 325 334 0
-363 -325 -334 0
363 -325 334 0
363 325 -334 0
-364 -359 0
-364 363 0
364 359 -363 0
-365 -362 0
-365 -364 0
365 362 364 0
-366 326 335 0
-366 -326 -335 0
366 -326 335 0
366 326 -335 0
-367 366 -365 0
-367 -366 365 0
367 -366 -365 0
367 366 365 0
-368 326 0
-368 335 0
368 -326 -335 0
-369 326 335 0
-369 -326 -335 0
369 -326 335 0
369 326 -335 0
-370 -365 0
-370 369 0
370 365 -369 0
-371 -368 0
-371 -370 0
371 368 370 0
-372 327 336 0
-372 -327 -336 0
372 -327 336 0
372 327 -336 0
-373 372 -371 0
-373 -372 371 0
373 -372 -371 0
373 372 371 0
-374 327 0
-374 336 0
374 -327 -336 0
-375 327 336 0
-375 -327 -336 0
375 -327 336 0
375 327 -336 0
-376 -371 0
-376 375 0
376 371 -375 0
-377 -374 0
-377 -376 0
377 374 376 0
-378 328 337 0
-378 -328 -337 0
378 -328 337 0
378 328 -337 0
-379 378 -377 0
-379 -378 377 0
379 -378 -377 0
379 378 377 0
-380 328 0
-380 337 0
380 -328 -337 0
-381 328 337 0
-381 -328 -337 0
381 -328 337 0
381 328 -337 0
-382 -377 0
-382 381 0
382 377 -381 0
-383 -380 0
-383 -382 0
383 380 382 0
-384 329 338 0
-384 -329 -338 0
384 -329 338 0
384 329 -338 0
-385 384 -383 0
-385 -384 383 0
385 -384 -383 0
385 384 383 0
-386 329 0
-386 338 0
386 -329 -338 0
-387 329 338 0
-387 -329 -338 0
387 -329 338 0
387 329 -338 0
-388 -383 0
-388 387 0
388 383 -387 0
-389 -386 0
-389 -388 0
389 386 388 0
-390 12 0
-390 4 0
390 -12 -4 0
-391 13 0
-391 4 0
391 -13 -4 0
-392 14 0
-392 4 0
392 -14 -4 0
-393 15 0
-393 4 0
393 -15 -4 0
-394 16 0
-394 4 0
394 -16 -4 0
-395 17 0
-395 4 0
395 -17 -4 0
-396 18 0
-396 4 0
396 -18 -4 0
-397 19 0
-397 4 0
397 -19 -4 0
-398 343 390 0
-398 -343 -390 0
398 -343 390 0
398 343 -390 0
-399 343 0
-399 390 0
399 -343 -390 0
-400 343 390 0
-400 -343 -390 0
400 -343 390 0
400 343 -390 0
-401 349 391 0
-401 -349 -391 0
401 -349 391 0
401 349 -391 0
-402 401 399 0
-402 -401 -399 0
402 -401 399 0
402 401 -399 0
-403 349 0
-403 391 0
403 -349 -391 0
-404 349 391 0
-404 -349 -391 0
404 -349 391 0
404 349 -391 0
-405 399 0
-405 404 0
405 -399 -404 0
-406 -403 0
-406 -405 0
406 403 405 0
-407 355 392 0
-407 -355 -392 0
407 -355 392 0
407 355 -392 0
-408 407 -406 0
-408 -407 406 0
408 -407 -406 0
408 407 406 0
-409 355 0
-409 392 0
409 -355 -392 0
-410 355 392 0
-410 -355 -392 0
410 -355 392 0
410 355 -392 0
-411 -406 0
-411 410 0
411 406 -410 0
-412 -409 0
-412 -411 0
412 409 411 0
-413 361 393 0
-413 -361 -393 0
413 -361 393 0
413 361 -393 0
-414 413 -412 0
-414 -413 412 0
414 -413 -412 0
414 413 412 0
-415 361 0
-415 393 0
415 -361 -393 0
-416 361 393 0
-416 -361 -393 0
416 -361 393 0
416 361 -393 0
-417 -412 0
-417 416 0
417 412 -416 0
-418 -415 0
-418 -417 0
418 415 417 0
-419 367 394 0
-419 -367 -394 0
419 -367 394 0
419 367 -394 0
-420 419 -418 0
-420 -419 418 0
420 -419 -418 0
420 419 418 0
-421 367 0
-421 394 0
421 -367 -394 0
-422 367 394 0
-422 -367 -394 0
422 -367 394 0
422 367 -394 0
-423 -418 0
-423 422 0
423 418 -422 0
-424 -421 0
-424 -423 0
424 421 423 0
-425 373 395 0
-425 -373 -395 0
425 -373 395 0
425 373 -395 0
-426 425 -424 0
-426 -425 424 0
426 -425 -424 0
426 425 424 0
-427 373 0
-427 395 0
427 -373 -395 0
-428 373 395 0
-428 -373 -395 0
428 -373 395 0
428 373 -395 0
-429 -424 0
-429 428 0
429 424 -428 0
-430 -427 0
-430 -429 0
430 427 429 0
-431 379 396 0
-431 -379 -396 0
431 -379 396 0
431 379 -396 0
-432 431 -430 0
-432 -431 430 0
432 -431 -430 0
432 431 430 0
-433 379 0
-433 396 0
433 -379 -396 0
-434 379 396 0
-434 -379 -396 0
434 -379 396 0
434 379 -396 0
-435 -430 0
-435 434 0
435 430 -434 0
-436 -433 0
-436 -435 0
436 433 435 0
-437 385 397 0
-437 -385 -397 0
437 -385 397 0
437 385 -397 0
-438 437 -436 0
-438 -437 436 0
438 -437 -436 0
438 437 436 0
-439 385 0
-439 397 0
439 -385 -397 0
-440 385 397 0
-440 -385 -397 0
440 -385 397 0
440 385 -397 0
-441 -436 0
-441 440 0
441 436 -440 0
-442 -439 0
-442 -441 0
442 439 441 0
-443 12 0
-443 5 0
443 -12 -5 0
-444 13 0
-444 5 0
444 -13 -5 0
-445 14 0
-445 5 0
445 -14 -5 0
-446 15 0
-446 5 0
446 -15 -5 0
-447 16 0
-447 5 0
447 -16 -5 0
-448 17 0
-448 5 0
448 -17 -5 0
-449 18 0
-449 5 0
449 -18 -5 0
-450 402 443 0
-450 -402 -443 0
450 -402 443 0
450 402 -443 0
-451 402 0
-451 443 0
451 -402 -443 0
-452 402 443 0
-452 -402 -443 0
452 -402 443 0
452 402 -443 0
-453 408 444 0
-453 -408 -444 0
453 -408 444 0
453 408 -444 0
-454 453 451 0
-454 -453 -451 0
454 -453 451 0
454 453 -451 0
-455 408 0
-455 444 0
455 -408 -444 0
-456 408 444 0
-456 -408 -444 0
456 -408 444 0
456 408 -444 0
-457 451 0
-457 456 0
457 -451 -456 0
-458 -455 0
-458 -457 0
458 455 457 0
-459 414 445 0
-459 -414 -445 0
459 -414 445 0
459 414 -445 0
-460 459 -458 0
-460 -459 458 0
460 -459 -458 0
460 459 458 0
-461 414 0
-461 445 0
461 -414 -445 0
-462 414 445 0
-462 -414 -445 0
462 -414 445 0
462 414 -445 0
-463 -458 0
-463 462 0
463 458 -462 0
-464 -461 0
-464 -463 0
464 461 463 0
-465 420 446 0
-465 -420 -446 0
465 -420 446 0
465 420 -446 0
-466 465 -464 0
-466 -465 464 0
466 -465 -464 0
466 465 464 0
-467 420 0
-467 446 0
467 -420 -446 0
-468 420 446 0
-468 -420 -446 0
468 -420 446 0
468 420 -446 0
-469 -464 0
-469 468 0
469 464 -468 0
-470 -467 0
-470 -469 0
470 467 469 0
-471 426 447 0
-471 -426 -447 0
471 -426 447 0
471 426 -447 0
-472 471 -470 0
-472 -471 470 0
472 -471 -470 0
472 471 470 0
-473 426 0
-473 447 0
473 -426 -447 0
-474 426 447 0
-474 -426 -447 0
474 -426 447 0
474 426 -447 0
-475 -470 0
-475 474 0
475 470 -474 0
-476 -473 0
-476 -475 0
476 473 475 0
-477 432 448 0
-477 -432 -448 0
477 -432 448 0
477 432 -448 0
-478 477 -476 0
-478 -477 476 0
478 -477 -476 0
478 477 476 0
-479 432 0
-479 448 0
479 -432 -448 0
-480 432 448 0
-480 -432 -448 0
480 -432 448 0
480 432 -448 0
-481 -476 0
-481 480 0
481 476 -480 0
-482 -479 0
-482 -481 0
482 479 481 0
-483 438 449 0
-483 -438 -449 0
483 -438 449 0
483 438 -449 0
-484 483 -482 0
-484 -483 482 0
484 -483 -482 0
484 483 482 0
-485 438 0
-485 449 0
485 -438 -449 0
-486 438 449 0
-486 -438 -449 0
486 -438 449 0
486 438 -449 0
-487 -482 0
-487 486 0
487 482 -486 0
-488 -485 0
-488 -487 0
488 485 487 0
-489 12 0
-489 6 0
489 -12 -6 0
-490 13 0
-490 6 0
490 -13 -6 0
-491 14 0
-491 6 0
491 -14 -6 0
-492 15 0
-492 6 0
492 -15 -6 0
-493 16 0
-493 6 0
493 -16 -6 0
-494 17 0
-494 6 0
494 -17 -6 0
-495 454 489 0
-495 -454 -489 0
495 -454 489 0
495 454 -489 0
-496 454 0
-496 489 0
496 -454 -489 0
-497 454 489 0
-497 -454 -489 0
497 -454 489 0
497 454 -489 0
-498 460 490 0
-498 -460 -490 0
498 -460 490 0
498 460 -490 0
-499 498 496 0
-499 -498 -496 0
499 -498 496 0
499 498 -496 0
-500 460 0
-500 490 0
500 -460 -490 0
-501 460 490 0
-501 -460 -490 0
501 -460 490 0
501 460 -490 0
-502 496 0
-502 501 0
502 -496 -501 0
-503 -500 0
-503 -502 0
503 500 502 0
-504 466 491 0
-504 -466 -491 0
504 -466 491 0
504 466 -491 0
-505 504 -503 0
-505 -504 503 0
505 -504 -503 0
505 504 503 0
-506 466 0
-506 491 0
506 -466 -491 0
-507 466 491 0
-507 -466 -491 0
507 -466 491 0
507 466 -491 0
-508 -503 0
-508 507 0
508 503 -507 0
-509 -506 0
-509 -508 0
509 506 508 0
-510 472 492 0
-510 -472 -492 0
510 -472 492 0
510 472 -492 0
-511 510 -509 0
-511 -510 509 0
511 -510 -509 0
511 510 509 0
-512 472 0
-512 492 0
512 -472 -492 0
-513 472 492 0
-513 -472 -492 0
513 -472 492 0
513 472 -492 0
-514 -509 0
-514 513 0
514 509 -513 0
-515 -512 0
-515 -514 0
515 512 514 0
-516 478 493 0
-516 -478 -493 0
516 -478 493 0
516 478 -493 0
-517 516 -515 0
-517 -516 515 0
517 -516 -515 0
517 516 515 0
-518 478 0
-518 493 0
518 -478 -493 0
-519 478 493 0
-519 -478 -493 0
519 -478 493 0
519 478 -493 0
-520 -515 0
-520 519 0
520 515 -519 0
-521 -518 0
-521 -520 0
521 518 520 0
-522 484 494 0
-522 -484 -494 0
522 -484 494 0
522 484 -494 0
-523 522 -521 0
-523 -522 521 0
523 -522 -521 0
523 522 521 0
-524 484 0
-524 494 0
524 -484 -494 0
-525 484 494 0
-525 -484 -494 0
525 -484 494 0
525 484 -494 0
-526 -521 0
-526 525 0
526 521 -525 0
-527 -524 0
-527 -526 0
527 524 526 0
-528 12 0
-528 7 0
528 -12 -7 0
-529 13 0
-529 7 0
529 -13 -7 0
-530 14 0
-530 7 0
530 -14 -7 0
-531 15 0
-531 7 0
531 -15 -7 0
-532 16 0
-532 7 0
532 -16 -7 0
-533 499 528 0
-533 -499 -528 0
533 -499 528 0
533 499 -528 0
-534 499 0
-534 528 0
534 -499 -528 0
-535 499 528 0
-535 -499 -528 0
535 -499 528 0
535 499 -528 0
-536 505 529 0
-536 -505 -529 0
536 -505 529 0
536 505 -529 0
-537 536 534 0
-537 -536 -534 0
537 -536 534 0
537 536 -534 0
-538 505 0
-538 529 0
538 -505 -529 0
-539 505 529 0
-539 -505 -529 0
539 -505 529 0
539 505 -529 0
-540 534 0
-540 539 0
540 -534 -539 0
-541 -538 0
-541 -540 0
541 538 540 0
-542 511 530 0
-542 -511 -530 0
542 -511 530 0
542 511 -530 0
-543 542 -541 0
-543 -542 541 0
543 -542 -541 0
543 542 541 0
-544 511 0
-544 530 0
544 -511 -530 0
-545 511 530 0
-545 -511 -530 0
545 -511 530 0
545 511 -530 0
-546 -541 0
-546 545 0
546 541 -545 0
-547 -544 0
-547 -546 0
547 544 546 0
-548 517 531 0
-548 -517 -531 0
548 -517 531 0
548 517 -531 0
-549 548 -547 0
-549 -548 547 0
549 -548 -547 0
549 548 547 0
-550 517 0
-550 531 0
550 -517 -531 0
-551 517 531 0
-551 -517 -531 0
551 -517 531 0
551 517 -531 0
-552 -547 0
-552 551 0
552 547 -551 0
-553 -550 0
-553 -552 0
553 550 552 0
-554 523 532 0
-554 -523 -532 0
554 -523 532 0
554 523 -532 0
-555 554 -553 0
-555 -554 553 0
555 -554 -553 0
555 554 553 0
-556 523 0
-556 532 0
556 -523 -532 0
-557 523 532 0
-557 -523 -532 0
557 -523 532 0
557 523 -532 0
-558 -553 0
-558 557 0
558 553 -557 0
-559 -556 0
-559 -558 0
559 556 558 0
-560 12 0
-560 8 0
560 -12 -8 0
-561 13 0
-561 8 0
561 -13 -8 0
-562 14 0
-562 8 0
562 -14 -8 0
-563 15 0
-563 8 0
563 -15 -8 0
-564 537 560 0
-564 -537 -560 0
564 -537 560 0
564 537 -560 0
-565 537 0
-565 560 0
565 -537 -560 0
-566 537 560 0
-566 -537 -560 0
566 -537 560 0
566 537 -560 0
-567 543 561 0
-567 -543 -561 0
567 -543 561 0
567 543 -561 0
-568 567 565 0
-568 -567 -565 0
568 -567 565 0
568 567 -565 0
-569 543 0
-569 561 0
569 -543 -561 0
-570 543 561 0
-570 -543 -561 0
570 -543 561 0
570 543 -561 0
-571 565 0
-571 570 0
571 -565 -570 0
-572 -569 0
-572 -571 0
572 569 571 0
-573 549 562 0
-573 -549 -562 0
573 -549 562 0
573 549 -562 0
-574 573 -572 0
-574 -573 572 0
574 -573 -572 0
574 573 572 0
-575 549 0
-575 562 0
575 -549 -562 0
-576 549 562 0
-576 -549 -562 0
576 -549 562 0
576 549 -562 0
-577 -572 0
-577 576 0
577 572 -576 0
-578 -575 0
-578 -577 0
578 575 577 0
-579 555 563 0
-579 -555 -563 0
579 -555 563 0
579 555 -563 0
-580 579 -578 0
-580 -579 578 0
580 -579 -578 0
580 579 578 0
-581 555 0
-581 563 0
581 -555 -563 0
-582 555 563 0
-582 -555 -563 0
582 -555 563 0
582 555 -563 0
-583 -578 0
-583 582 0
583 578 -582 0
-584 -581 0
-584 -583 0
584 581 583 0
-585 12 0
-585 9 0
585 -12 -9 0
-586 13 0
-586 9 0
586 -13 -9 0
-587 14 0
-587 9 0
587 -14 -9 0
-588 568 585 0
-588 -568 -585 0
588 -568 585 0
588 568 -585 0
-589 568 0
-589 585 0
589 -568 -585 0
-590 568 585 0
-590 -568 -585 0
590 -568 585 0
590 568 -585 0
-591 574 586 0
-591 -574 -586 0
591 -574 586 0
591 574 -586 0
-592 591 589 0
-592 -591 -589 0
592 -591 589 0
592 591 -589 0
-593 574 0
-593 586 0
593 -574 -586 0
-594 574 586 0
-594 -574 -586 0
594 -574 586 0
594 574 -586 0
-595 589 0
-595 594 0
595 -589 -594 0
-596 -593 0
-596 -595 0
596 593 595 0
-597 580 587 0
-597 -580 -587 0
597 -580 587 0
597 580 -587 0
-598 597 -596 0
-598 -597 596 0
598 -597 -596 0
598 597 596 0
-599 580 0
-599 587 0
599 -580 -587 0
-600 580 587 0
-600 -580 -587 0
600 -580 587 0
600 580 -587 0
-601 -596 0
-601 600 0
601 596 -600 0
-602 -599 0
-602 -601 0
602 599 601 0
-603 12 0
-603 10 0
603 -12 -10 0
-604 13 0
-604 10 0
604 -13 -10 0
-605 592 603 0
-605 -592 -603 0
605 -592 603 0
605 592 -603 0
-606 592 0
-606 603 0
606 -592 -603 0
-607 592 603 0
-607 -592 -603 0
607 -592 603 0
607 592 -603 0
-608 598 604 0
-608 -598 -604 0
608 -598 604 0
608 598 -604 0
-609 608 606 0
-609 -608 -606 0
609 -608 606 0
609 608 -606 0
-610 598 0
-610 604 0
610 -598 -604 0
-611 598 604 0
-611 -598 -604 0
611 -598 604 0
611 598 -604 0
-612 606 0
-612 611 0
612 -606 -611 0
-613 -610 0
-613 -612 0
613 610 612 0
-614 12 0
-614 11 0
614 -12 -11 0
-615 609 614 0
-615 -609 -614 0
615 -609 614 0
615 609 -614 0
-616 609 0
-616 614 0
616 -609 -614 0
-617 609 614 0
-617 -609 -614 0
617 -609 614 0
617 609 -614 0
-618 22 320 0
-618 -22 -320 0
618 -22 320 0
618 22 -320 0
-619 41 339 0
-619 -41 -339 0
619 -41 339 0
619 41 -339 0
-620 100 398 0
-620 -100 -398 0
620 -100 398 0
620 100 -398 0
-621 152 450 0
-621 -152 -450 0
621 -152 450 0
621 152 -450 0
-622 197 495 0
-622 -197 -495 0
622 -197 495 0
622 197 -495 0
-623 235 533 0
-623 -235 -533 0
623 -235 533 0
623 235 -533 0
-624 266 564 0
-624 -266 -564 0
624 -266 564 0
624 266 -564 0
-625 290 588 0
-625 -290 -588 0
625 -290 588 0
625 290 -588 0
-626 307 605 0
-626 -307 -605 0
626 -307 605 0
626 307 -605 0
-627 317 615 0
-627 -317 -615 0
627 -317 615 0
627 317 -615 0
618 619 620 621 622 623 624 625 626 627 0
