p cnf 87 270
1 0
-10 2 0
-10 6 0
10 -2 -6 0
-11 3 0
-11 6 0
11 -3 -6 0
-12 4 0
-12 6 0
12 -4 -6 0
-13 5 0
-13 6 0
13 -5 -6 0
-14 2 0
-14 7 0
14 -2 -7 0
-15 3 0
-15 7 0
15 -3 -7 0
-16 4 0
-16 7 0
16 -4 -7 0
-17 11 14 0
-17 -11 -14 0
17 -11 14 0
17 11 -14 0
-18 11 0
-18 14 0
18 -11 -14 0
-19 11 14 0
-19 -11 -14 0
19 -11 14 0
19 11 -14 0
-20 12 15 0
-20 -12 -15 0
20 -12 15 0
20 12 -15 0
-21 20 18 0
-21 -20 -18 0
21 -20 18 0
21 20 -18 0
-22 12 0
-22 15 0
22 -12 -15 0
-23 12 15 0
-23 -12 -15 0
23 -12 15 0
23 12 -15 0
-24 18 0
-24 23 0
24 -18 -23 0
-25 -22 0
-25 -24 0
25 22 24 0
-26 13 16 0
-26 -13 -16 0
26 -13 16 0
26 13 -16 0
-27 26 -25 0
-27 -26 25 0
27 -26 -25 0
27 26 25 0
-28 13 0
-28 16 0
28 -13 -16 0
-29 13 16 0
-29 -13 -16 0
29 -13 16 0
29 13 -16 0
-30 -25 0
-30 29 0
30 25 -29 0
-31 -28 0
-31 -30 0
31 28 30 0
-32 2 0
-32 8 0
32 -2 -8 0
-33 3 0
-33 8 0
33 -3 -8 0
-34 21 32 0
-34 -21 -32 0
34 -21 32 0
34 21 -32 0
-35 21 0
-35 32 0
35 -21 -32 0
-36 21 32 0
-36 -21 -32 0
36 -21 32 0
36 21 -32 0
-37 27 33 0
-37 -27 -33 0
37 -27 33 0
37 27 -33 0
-38 37 35 0
-38 -37 -35 0
38 -37 35 0
38 37 -35 0
-39 27 0
-39 33 0
39 -27 -33 0
-40 27 33 0
-40 -27 -33 0
40 -27 33 0
40 27 -33 0
-41 35 0
-41 40 0
41 -35 -40 0
-42 -39 0
-42 -41 0
42 39 41 0
-43 2 0
-43 9 0
43 -2 -9 0
-44 38 43 0
-44 -38 -43 0
44 -38 43 0
44 38 -43 0
-45 38 0
-45 43 0
45 -38 -43 0
-46 38 43 0
-46 -38 -43 0
46 -38 43 0
46 38 -43 0
-47 6 0
-47 2 0
47 -6 -2 0
-48 7 0
-48 2 0
48 -7 -2 0
-49 8 0
-49 2 0
49 -8 -2 0
-50 9 0
-50 2 0
50 -9 -2 0
-51 6 0
-51 3 0
51 -6 -3 0
-52 7 0
-52 3 0
52 -7 -3 0
-53 8 0
-53 3 0
53 -8 -3 0
-54 48 51 0
-54 -48 -51 0
54 -48 51 0
54 48 -51 0
-55 48 0
-55 51 0
55 -48 -51 0
-56 48 51 0
-56 -48 -51 0
56 -48 51 0
56 48 -51 0
-57 49 52 0
-57 -49 -52 0
57 -49 52 0
57 49 -52 0
-58 57 55 0
-58 -57 -55 0
58 -57 55 0
58 57 -55 0
-59 49 0
-59 52 0
59 -49 -52 0
-60 49 52 0
-60 -49 -52 0
60 -49 52 0
60 49 -52 0
-61 55 0
-61 60 0
61 -55 -60 0
-62 -59 0
-62 -61 0
62 59 61 0
-63 50 53 0
-63 -50 -53 0
63 -50 53 0
63 50 -53 0
-64 63 -62 0
-64 -63 62 0
64 -63 -62 0
64 63 62 0
-65 50 0
-65 53 0
65 -50 -53 0
-66 50 53 0
-66 -50 -53 0
66 -50 53 0
66 50 -53 0
-67 -62 0
-67 66 0
67 62 -66 0
-68 -65 0
-68 -67 0
68 65 67 0
-69 6 0
-69 4 0
69 -6 -4 0
-70 7 0
-70 4 0
70 -7 -4 0
-71 58 69 0
-71 -58 -69 0
71 -58 69 0
71 58 -69 0
-72 58 0
-72 69 0
72 -58 -69 0
-73 58 69 0
-73 -58 -69 0
73 -58 69 0
73 58 -69 0
-74 64 70 0
-74 -64 -70 0
74 -64 70 0
74 64 -70 0
-75 74 72 0
-75 -74 -72 0
75 -74 72 0
75 74 -72 0
-76 64 0
-76 70 0
76 -64 -70 0
-77 64 70 0
-77 -64 -70 0
77 -64 70 0
77 64 -70 0
-78 72 0
-78 77 0
78 -72 -77 0
-79 -76 0
-79 -78 0
79 76 78 0
-80 6 0
-80 5 0
80 -6 -5 0
-81 75 80 0
-81 -75 -80 0
81 -75 80 0
81 75 -80 0
-82 75 0
-82 80 0
82 -75 -80 0
-83 75 80 0
-83 -75 -80 0
83 -75 80 0
83 75 -80 0
-84 10 47 0
-84 -10 -47 0
84 -10 47 0
84 10 -47 0
-85 17 54 0
-85 -17 -54 0
85 -17 54 0
85 17 -54 0
-86 34 71 0
-86 -34 -71 0
86 -34 71 0
86 34 -71 0
-87 44 81 0
-87 -44 -81 0
87 -44 81 0
87 44 -81 0
84 85 86 87 0
