p cnf 128 254
1 0
-66 2 2 0
-66 -2 -2 0
66 -2 2 0
66 2 -2 0
-67 3 3 0
-67 -3 -3 0
67 -3 3 0
67 3 -3 0
-68 4 4 0
-68 -4 -4 0
68 -4 4 0
68 4 -4 0
-69 5 5 0
-69 -5 -5 0
69 -5 5 0
69 5 -5 0
-70 6 6 0
-70 -6 -6 0
70 -6 6 0
70 6 -6 0
-71 7 7 0
-71 -7 -7 0
71 -7 7 0
71 7 -7 0
-72 8 8 0
-72 -8 -8 0
72 -8 8 0
72 8 -8 0
-73 9 9 0
-73 -9 -9 0
73 -9 9 0
73 9 -9 0
-74 10 10 0
-74 -10 -10 0
74 -10 10 0
74 10 -10 0
-75 11 11 0
-75 -11 -11 0
75 -11 11 0
75 11 -11 0
-76 12 12 0
-76 -12 -12 0
76 -12 12 0
76 12 -12 0
-77 13 13 0
-77 -13 -13 0
77 -13 13 0
77 13 -13 0
-78 14 14 0
-78 -14 -14 0
78 -14 14 0
78 14 -14 0
-79 15 15 0
-79 -15 -15 0
79 -15 15 0
79 15 -15 0
-80 16 16 0
-80 -16 -16 0
80 -16 16 0
80 16 -16 0
-81 17 17 0
-81 -17 -17 0
81 -17 17 0
81 17 -17 0
-82 18 18 0
-82 -18 -18 0
82 -18 18 0
82 18 -18 0
-83 19 19 0
-83 -19 -19 0
83 -19 19 0
83 19 -19 0
-84 20 20 0
-84 -20 -20 0
84 -20 20 0
84 20 -20 0
-85 21 21 0
-85 -21 -21 0
85 -21 21 0
85 21 -21 0
-86 22 22 0
-86 -22 -22 0
86 -22 22 0
86 22 -22 0
-87 23 23 0
-87 -23 -23 0
87 -23 23 0
87 23 -23 0
-88 24 24 0
-88 -24 -24 0
88 -24 24 0
88 24 -24 0
-89 25 25 0
-89 -25 -25 0
89 -25 25 0
89 25 -25 0
-90 26 26 0
-90 -26 -26 0
90 -26 26 0
90 26 -26 0
-91 27 27 0
-91 -27 -27 0
91 -27 27 0
91 27 -27 0
-92 28 28 0
-92 -28 -28 0
92 -28 28 0
92 28 -28 0
-93 29 29 0
-93 -29 -29 0
93 -29 29 0
93 29 -29 0
-94 30 30 0
-94 -30 -30 0
94 -30 30 0
94 30 -30 0
-95 31 31 0
-95 -31 -31 0
95 -31 31 0
95 31 -31 0
-96 32 32 0
-96 -32 -32 0
96 -32 32 0
96 32 -32 0
-97 33 33 0
-97 -33 -33 0
97 -33 33 0
97 33 -33 0
-98 34 34 0
-98 -34 -34 0
98 -34 34 0
98 34 -34 0
-99 35 35 0
-99 -35 -35 0
99 -35 35 0
99 35 -35 0
-100 36 36 0
-100 -36 -36 0
100 -36 36 0
100 36 -36 0
-101 37 37 0
-101 -37 -37 0
101 -37 37 0
101 37 -37 0
-102 38 38 0
-102 -38 -38 0
102 -38 38 0
102 38 -38 0
-103 39 39 0
-103 -39 -39 0
103 -39 39 0
103 39 -39 0
-104 40 40 0
-104 -40 -40 0
104 -40 40 0
104 40 -40 0
-105 41 41 0
-105 -41 -41 0
105 -41 41 0
105 41 -41 0
-106 42 42 0
-106 -42 -42 0
106 -42 42 0
106 42 -42 0
-107 43 43 0
-107 -43 -43 0
107 -43 43 0
107 43 -43 0
-108 44 44 0
-108 -44 -44 0
108 -44 44 0
108 44 -44 0
-109 45 45 0
-109 -45 -45 0
109 -45 45 0
109 45 -45 0
-110 46 46 0
-110 -46 -46 0
110 -46 46 0
110 46 -46 0
-111 47 47 0
-111 -47 -47 0
111 -47 47 0
111 47 -47 0
-112 48 48 0
-112 -48 -48 0
112 -48 48 0
112 48 -48 0
-113 49 49 0
-113 -49 -49 0
113 -49 49 0
113 49 -49 0
-114 50 50 0
-114 -50 -50 0
114 -50 50 0
114 50 -50 0
-115 51 51 0
-115 -51 -51 0
115 -51 51 0
115 51 -51 0
-116 52 52 0
-116 -52 -52 0
116 -52 52 0
116 52 -52 0
-117 53 53 0
-117 -53 -53 0
117 -53 53 0
117 53 -53 0
-118 54 54 0
-118 -54 -54 0
118 -54 54 0
118 54 -54 0
-119 55 55 0
-119 -55 -55 0
119 -55 55 0
119 55 -55 0
-120 56 56 0
-120 -56 -56 0
120 -56 56 0
120 56 -56 0
-121 57 57 0
-121 -57 -57 0
121 -57 57 0
121 57 -57 0
-122 58 58 0
-122 -58 -58 0
122 -58 58 0
122 58 -58 0
-123 59 59 0
-123 -59 -59 0
123 -59 59 0
123 59 -59 0
-124 60 60 0
-124 -60 -60 0
124 -60 60 0
124 60 -60 0
-125 61 61 0
-125 -61 -61 0
125 -61 61 0
125 61 -61 0
-126 62 62 0
-126 -62 -62 0
126 -62 62 0
126 62 -62 0
-127 63 63 0
-127 -63 -63 0
127 -63 63 0
127 63 -63 0
-128 64 64 0
-128 -64 -64 0
128 -64 64 0
128 64 -64 0
-1 66 67 68 69 70 71 72 73 74 75 76 77 78 79 80 81 82 83 84 85 86 87 88 89 90 91 92 93 94 95 96 97 98 99 100 101 102 103 104 105 106 107 108 109 110 111 112 113 114 115 116 117 118 119 120 121 122 123 124 125 126 127 128 0
