p cnf 64 126
1 0
-34 2 2 0
-34 -2 -2 0
34 -2 2 0
34 2 -2 0
-35 3 3 0
-35 -3 -3 0
35 -3 3 0
35 3 -3 0
-36 4 4 0
-36 -4 -4 0
36 -4 4 0
36 4 -4 0
-37 5 5 0
-37 -5 -5 0
37 -5 5 0
37 5 -5 0
-38 6 6 0
-38 -6 -6 0
38 -6 6 0
38 6 -6 0
-39 7 7 0
-39 -7 -7 0
39 -7 7 0
39 7 -7 0
-40 8 8 0
-40 -8 -8 0
40 -8 8 0
40 8 -8 0
-41 9 9 0
-41 -9 -9 0
41 -9 9 0
41 9 -9 0
-42 10 10 0
-42 -10 -10 0
42 -10 10 0
42 10 -10 0
-43 11 11 0
-43 -11 -11 0
43 -11 11 0
43 11 -11 0
-44 12 12 0
-44 -12 -12 0
44 -12 12 0
44 12 -12 0
-45 13 13 0
-45 -13 -13 0
45 -13 13 0
45 13 -13 0
-46 14 14 0
-46 -14 -14 0
46 -14 14 0
46 14 -14 0
-47 15 15 0
-47 -15 -15 0
47 -15 15 0
47 15 -15 0
-48 16 16 0
-48 -16 -16 0
48 -16 16 0
48 16 -16 0
-49 17 17 0
-49 -17 -17 0
49 -17 17 0
49 17 -17 0
-50 18 18 0
-50 -18 -18 0
50 -18 18 0
50 18 -18 0
-51 19 19 0
-51 -19 -19 0
51 -19 19 0
51 19 -19 0
-52 20 20 0
-52 -20 -20 0
52 -20 20 0
52 20 -20 0
-53 21 21 0
-53 -21 -21 0
53 -21 21 0
53 21 -21 0
-54 22 22 0
-54 -22 -22 0
54 -22 22 0
54 22 -22 0
-55 23 23 0
-55 -23 -23 0
55 -23 23 0
55 23 -23 0
-56 24 24 0
-56 -24 -24 0
56 -24 24 0
56 24 -24 0
-57 25 25 0
-57 -25 -25 0
57 -25 25 0
57 25 -25 0
-58 26 26 0
-58 -26 -26 0
58 -26 26 0
58 26 -26 0
-59 27 27 0
-59 -27 -27 0
59 -27 27 0
59 27 -27 0
-60 28 28 0
-60 -28 -28 0
60 -28 28 0
60 28 -28 0
-61 29 29 0
-61 -29 -29 0
61 -29 29 0
61 29 -29 0
-62 30 30 0
-62 -30 -30 0
62 -30 30 0
62 30 -30 0
-63 31 31 0
-63 -31 -31 0
63 -31 31 0
63 31 -31 0
-64 32 32 0
-64 -32 -32 0
64 -32 32 0
64 32 -32 0
-1 34 35 36 37 38 39 40 41 42 43 44 45 46 47 48 49 50 51 52 53 54 55 56 57 58 59 60 61 62 63 64 0
