p cnf 200 852
-162 137 129 0
-154 159 14 0
139 36 137 0
62 96 -140 0
-10 -185 -87 0
86 -9 -50 0
-121 -22 188 0
10 -12 -6 0
-110 -58 118 0
140 196 149 0
62 -119 -40 0
-199 178 -28 0
-145 -37 197 0
-9 -45 -123 0
-68 14 106 0
199 -134 61 0
-51 156 99 0
118 26 -45 0
-41 10 -54 0
6 -186 165 0
109 -110 11 0
45 -158 134 0
189 -171 21 0
183 -150 -10 0
-42 197 108 0
160 -145 17 0
-80 53 -72 0
54 -81 -168 0
-156 -38 127 0
25 109 -39 0
-181 56 -114 0
-69 -6 104 0
127 31 29 0
87 147 -85 0
-74 -194 155 0
-166 49 -18 0
164 -90 -111 0
127 -102 89 0
116 121 113 0
86 -137 -108 0
-110 -8 -22 0
122 -69 51 0
178 98 -144 0
-103 59 87 0
63 -12 81 0
123 -119 -43 0
42 184 -145 0
109 -135 -89 0
-58 -151 5 0
167 -66 171 0
65 -11 183 0
-195 -137 70 0
57 162 -93 0
-82 -113 -105 0
64 54 83 0
49 -134 110 0
-119 132 -137 0
181 -99 -116 0
27 -185 50 0
198 -48 -184 0
-45 -42 123 0
-41 -55 -43 0
-119 -87 -173 0
-144 196 19 0
73 -68 114 0
160 10 27 0
157 -166 138 0
37 75 -92 0
-137 -125 165 0
-177 -26 101 0
115 164 14 0
112 147 90 0
87 16 184 0
24 95 91 0
-138 -146 169 0
-59 13 151 0
168 78 189 0
122 184 100 0
199 -90 118 0
73 92 44 0
-171 151 -30 0
-6 -161 83 0
-11 15 -69 0
-30 119 109 0
197 -56 181 0
101 -81 -132 0
-151 -47 -54 0
58 125 -155 0
123 -101 150 0
9 -15 -97 0
-171 80 -40 0
60 -151 32 0
-197 -139 -131 0
5 -82 34 0
161 -63 -85 0
100 -104 147 0
85 -79 37 0
-154 -150 -40 0
88 -173 -61 0
-103 83 163 0
8 142 -59 0
144 54 150 0
95 -170 163 0
-147 27 84 0
26 -109 33 0
-125 70 -38 0
-135 -149 -92 0
-68 40 195 0
158 -106 118 0
162 -26 46 0
-12 -133 199 0
81 -5 -80 0
92 -179 -194 0
-102 130 -50 0
187 -53 -168 0
115 -181 93 0
100 139 -90 0
-177 -61 -89 0
190 -44 -159 0
117 -137 -46 0
62 21 70 0
-80 158 -194 0
117 -111 -135 0
133 -65 -157 0
-97 173 -11 0
-157 97 -149 0
-30 -178 197 0
179 -110 40 0
92 -27 -162 0
85 -58 166 0
77 -173 66 0
-186 116 182 0
183 -81 106 0
-40 92 57 0
-124 50 137 0
-116 -189 -122 0
-22 -129 -54 0
-15 59 177 0
161 76 -158 0
-86 154 -15 0
181 -122 36 0
60 190 -13 0
-63 -44 131 0
194 -21 -34 0
-29 -161 -192 0
-186 -50 39 0
-85 83 117 0
162 -108 149 0
20 -16 182 0
141 -117 154 0
32 61 1 0
-30 -13 79 0
159 -6 110 0
-187 -68 -66 0
-14 100 -81 0
-1 -17 -55 0
-26 16 86 0
146 -187 156 0
-135 -188 -84 0
-194 -121 77 0
-85 -133 101 0
-126 85 73 0
-82 -125 2 0
143 -89 -40 0
-4 -167 90 0
139 168 192 0
-54 49 76 0
185 -178 17 0
122 -165 -125 0
-188 -121 77 0
-61 -190 133 0
50 200 33 0
-162 180 122 0
34 -40 142 0
-31 -98 108 0
-125 -44 -153 0
151 91 87 0
102 -136 -58 0
-115 123 -135 0
65 164 59 0
-69 -198 -131 0
6 -26 -153 0
-167 105 -173 0
-80 119 -49 0
33 -16 -172 0
-147 157 96 0
-200 192 67 0
178 185 89 0
-15 -174 125 0
193 -14 -8 0
14 172 -113 0
111 -84 -96 0
188 -101 196 0
-174 -50 103 0
-184 89 -63 0
156 -150 -152 0
-163 6 34 0
45 176 -104 0
-101 -107 36 0
-166 -176 -62 0
174 92 -84 0
109 25 184 0
181 -192 190 0
-115 -110 -185 0
150 159 -192 0
-140 -1 -160 0
-93 -37 88 0
-10 -187 136 0
-147 -97 -48 0
-29 -61 -68 0
-86 -92 75 0
-46 144 -158 0
-35 34 180 0
-141 118 151 0
62 -164 117 0
70 -193 -190 0
-127 -98 178 0
-118 -59 105 0
-66 15 -162 0
132 118 -193 0
-36 149 183 0
21 -174 177 0
-38 198 -19 0
-10 -30 122 0
84 -199 189 0
135 123 -68 0
141 -9 -98 0
-199 12 101 0
-170 -162 -99 0
-69 -61 -77 0
155 -124 -153 0
62 39 -77 0
-112 33 162 0
1 -140 -173 0
-140 51 -82 0
-4 102 -111 0
27 98 -71 0
-7 146 -179 0
-163 -200 -82 0
-197 148 40 0
-23 -109 -4 0
-141 -153 171 0
-43 26 -87 0
76 -29 -157 0
149 21 81 0
-158 -23 -153 0
-85 143 34 0
106 46 53 0
121 -9 -52 0
-192 41 -89 0
29 -173 23 0
-1 94 -53 0
-169 192 -145 0
31 -197 -123 0
199 140 -133 0
136 64 195 0
7 119 -14 0
-17 123 -83 0
113 -155 97 0
57 -180 -117 0
-52 -200 -50 0
-120 37 -196 0
-18 93 -160 0
-176 -87 -107 0
133 -98 29 0
-50 81 -20 0
147 42 -16 0
-178 -134 -160 0
-35 -127 85 0
162 100 199 0
-154 102 47 0
-22 198 134 0
-135 31 -16 0
78 37 150 0
-30 129 164 0
190 169 -104 0
-14 -155 -1 0
138 -98 154 0
-153 -95 -116 0
6 26 -1 0
68 -135 -67 0
182 -49 154 0
-125 -159 185 0
180 182 37 0
-31 -50 161 0
198 -56 149 0
146 110 119 0
-104 -6 4 0
-23 -93 -150 0
9 -83 -133 0
-151 28 168 0
-196 -52 163 0
-101 -9 66 0
-194 30 -42 0
-179 138 -46 0
-91 160 32 0
198 89 -126 0
75 -179 141 0
-134 66 117 0
-151 58 -155 0
166 111 -26 0
-47 -112 -109 0
190 185 -123 0
-99 -40 97 0
137 -27 -99 0
96 -132 -6 0
12 -187 163 0
152 -197 174 0
-108 -101 -147 0
30 94 -125 0
-164 185 -25 0
41 -189 68 0
-86 110 166 0
-10 -104 196 0
138 -98 -20 0
-88 144 -168 0
-159 -17 175 0
-53 -112 189 0
173 143 9 0
-125 127 22 0
13 -166 -126 0
23 -15 -88 0
31 -200 114 0
-75 -31 -25 0
-19 -115 -55 0
198 -133 166 0
169 -48 -37 0
32 100 148 0
-182 -155 -188 0
15 149 -58 0
-116 -43 176 0
-133 -116 -141 0
83 75 166 0
77 -84 88 0
-159 146 6 0
58 29 173 0
-134 95 43 0
10 101 -165 0
-194 156 43 0
-117 170 67 0
75 93 61 0
-158 -121 -143 0
73 51 157 0
74 94 87 0
1 135 60 0
-25 -167 -160 0
12 156 -88 0
48 114 70 0
-148 107 -62 0
-148 -136 56 0
-123 -1 -162 0
-68 -116 -106 0
-143 54 176 0
-71 123 165 0
-58 68 57 0
-135 146 -123 0
-109 144 172 0
-2 -158 172 0
198 140 -2 0
109 181 -93 0
151 30 -28 0
105 -192 -172 0
101 80 -188 0
-158 185 78 0
96 -138 -83 0
-187 -65 -8 0
187 41 102 0
-168 -10 -33 0
200 85 195 0
-37 149 83 0
-181 -95 -93 0
156 144 62 0
74 -18 12 0
157 106 -185 0
59 113 -68 0
20 -65 -195 0
-4 48 179 0
-28 -200 48 0
-115 148 -181 0
34 -188 -72 0
-53 102 -63 0
133 -72 118 0
153 -169 -62 0
-27 -141 -57 0
53 139 72 0
-107 -191 -50 0
32 -133 200 0
174 111 56 0
13 -8 162 0
-170 -193 -88 0
-187 44 -100 0
-107 -143 -10 0
-4 52 -137 0
112 121 -19 0
122 59 133 0
-76 -163 18 0
-168 67 -178 0
-7 60 182 0
197 43 119 0
-15 172 -155 0
-118 11 98 0
-101 -188 76 0
196 120 -103 0
62 130 112 0
196 198 -129 0
194 22 130 0
-46 -68 63 0
27 -70 28 0
-136 41 -185 0
-178 195 180 0
-61 -14 169 0
178 36 23 0
-164 111 180 0
-143 -38 20 0
-100 -189 66 0
-64 96 169 0
-34 -176 -167 0
-95 -25 -50 0
-149 -71 171 0
-124 -161 179 0
121 -17 -181 0
-22 -92 104 0
-151 -152 66 0
157 131 72 0
161 -12 168 0
31 -4 183 0
141 -114 -198 0
-58 -83 -123 0
-6 184 33 0
177 13 -72 0
-42 -50 133 0
56 146 -184 0
140 30 -143 0
-168 -26 -13 0
188 -72 68 0
-6 106 146 0
-124 195 -34 0
100 62 75 0
66 -199 -41 0
175 63 -60 0
-17 35 -190 0
200 100 99 0
156 -92 -101 0
-101 -107 -166 0
-59 -49 191 0
-185 -2 -5 0
-138 -158 -53 0
125 80 -75 0
25 166 199 0
-178 -175 -47 0
-4 29 -13 0
-120 -30 192 0
-136 -133 -168 0
60 -58 166 0
-47 92 -54 0
-107 81 193 0
-120 137 -106 0
107 11 -127 0
22 162 20 0
-133 -71 -23 0
-87 95 51 0
173 -167 -126 0
4 -189 -149 0
-144 137 6 0
-71 -52 -75 0
21 60 193 0
170 -199 153 0
60 91 159 0
92 47 -181 0
-31 -194 -164 0
-142 -172 124 0
3 -79 30 0
-14 29 -172 0
106 76 193 0
-39 137 -64 0
-21 -1 -181 0
-151 38 -81 0
175 167 -157 0
-18 -134 155 0
8 150 -18 0
-19 -27 -39 0
-119 177 44 0
-62 178 -168 0
-92 19 -50 0
93 62 -8 0
94 -93 -192 0
60 188 -112 0
63 -114 -172 0
-13 197 76 0
100 -182 -109 0
-182 -70 78 0
-99 30 -10 0
72 -74 -96 0
173 -164 -28 0
-189 -54 77 0
-186 152 26 0
109 143 -69 0
27 -19 10 0
-148 -46 -197 0
-69 62 149 0
126 31 115 0
123 95 -37 0
-95 -172 40 0
-71 129 111 0
-89 -128 51 0
-60 48 -173 0
44 74 198 0
36 -143 -72 0
-186 66 37 0
59 -49 109 0
-139 32 -99 0
43 -116 -11 0
-168 100 -137 0
-144 119 -41 0
-149 -148 -150 0
-52 186 147 0
-46 -167 58 0
86 -31 -32 0
-62 24 114 0
-125 -19 -146 0
-105 83 -17 0
-88 -142 11 0
-22 109 73 0
88 89 150 0
-33 106 15 0
-46 -151 94 0
-158 2 -10 0
113 53 -156 0
-58 -194 -198 0
-194 -175 127 0
-102 -197 -190 0
-124 37 176 0
21 57 -100 0
-49 76 73 0
145 174 -134 0
-39 -26 -127 0
3 -171 -180 0
38 82 -56 0
-5 -90 150 0
8 152 196 0
-97 -71 -198 0
173 -127 -156 0
96 -126 133 0
-144 50 42 0
-198 190 -106 0
-157 -135 186 0
-80 -154 90 0
188 14 -77 0
-43 -182 41 0
-101 -112 64 0
164 59 9 0
32 -183 147 0
186 185 -70 0
84 141 198 0
-15 141 71 0
125 51 124 0
148 186 140 0
-164 -75 138 0
28 131 -33 0
121 -16 27 0
92 161 -68 0
19 34 -108 0
157 -85 -105 0
93 -163 119 0
177 -46 -12 0
-75 -42 37 0
98 -175 153 0
161 -44 86 0
130 -26 50 0
109 -120 148 0
172 87 66 0
113 151 190 0
136 62 -176 0
1 88 -125 0
37 7 -75 0
-47 -66 104 0
-37 22 -197 0
1 133 -115 0
-83 26 22 0
69 68 155 0
-79 -135 -48 0
-137 -11 -179 0
-163 -18 70 0
188 198 -93 0
26 -35 -40 0
13 -7 -193 0
-152 -190 184 0
-37 -142 132 0
-92 -85 -7 0
-129 -113 -180 0
68 97 48 0
-112 -136 -47 0
98 -46 25 0
117 -18 -61 0
33 188 86 0
-111 85 38 0
46 103 133 0
-117 194 98 0
-144 120 -44 0
145 -96 -27 0
-189 17 -67 0
-177 -39 -35 0
-155 -142 -34 0
90 135 -39 0
-135 -101 -49 0
113 121 183 0
-196 -12 -31 0
-81 -110 121 0
-47 72 -6 0
-92 35 128 0
-21 169 -52 0
175 158 178 0
-4 -69 -21 0
-40 -196 68 0
-134 -19 153 0
122 43 -91 0
12 -130 39 0
17 192 152 0
52 -168 -59 0
174 134 200 0
-168 99 -42 0
-169 198 -39 0
-104 -67 116 0
175 -92 198 0
116 152 179 0
-130 -153 -149 0
-164 -84 11 0
-11 102 184 0
-166 117 159 0
-84 -81 125 0
-39 31 -183 0
-55 8 -138 0
-60 -94 95 0
-199 44 -32 0
193 110 67 0
95 142 153 0
-69 185 187 0
131 -180 136 0
178 -196 72 0
91 66 199 0
10 77 -185 0
179 81 112 0
38 -110 -175 0
-44 -102 92 0
38 170 85 0
-144 -83 -114 0
-3 -79 -91 0
-51 71 21 0
-172 106 -74 0
-121 105 -83 0
-189 137 152 0
-188 -69 146 0
138 91 -15 0
-18 -66 76 0
-174 -150 -76 0
68 -141 -166 0
-172 171 -32 0
170 -59 72 0
-27 -172 -45 0
-21 -13 176 0
-134 65 131 0
-73 97 -175 0
47 -90 99 0
174 54 194 0
-2 89 22 0
129 -126 -48 0
102 -40 43 0
-30 -86 133 0
13 122 -24 0
87 154 176 0
-93 195 117 0
-79 155 23 0
-92 166 120 0
182 1 47 0
113 -173 9 0
56 -98 79 0
106 53 109 0
11 197 113 0
11 12 -180 0
44 -126 185 0
104 -199 -117 0
-168 -190 -52 0
-111 88 -93 0
-130 69 138 0
84 -111 64 0
2 177 -106 0
-19 20 -7 0
-38 152 71 0
-20 -190 24 0
-60 146 49 0
198 129 -173 0
-148 -37 159 0
37 134 -17 0
-170 -55 -53 0
-148 -72 -99 0
142 -167 -85 0
-84 184 -117 0
23 28 -159 0
-30 44 102 0
-109 -105 -140 0
105 -64 193 0
-112 -140 -15 0
144 -33 167 0
13 -91 38 0
76 19 -190 0
50 118 65 0
108 18 -131 0
-179 -13 138 0
18 25 98 0
178 -166 -40 0
194 -122 131 0
-2 175 -199 0
108 -48 -136 0
87 -80 -137 0
38 157 24 0
-105 4 -139 0
7 -123 -35 0
-153 -115 -10 0
-87 -37 -186 0
-181 -132 -28 0
159 -13 -165 0
141 -115 199 0
-163 108 -188 0
-140 -30 -143 0
-171 23 4 0
-190 143 -161 0
62 83 124 0
169 128 -115 0
20 -163 -159 0
36 158 19 0
-24 -99 -50 0
190 14 -129 0
176 -153 -161 0
144 -194 142 0
-10 -113 -129 0
-179 -182 -137 0
40 -150 -52 0
110 167 -54 0
-67 -175 2 0
112 25 109 0
-145 -116 -173 0
-81 173 -136 0
-87 108 -181 0
36 53 -76 0
191 -2 -29 0
-180 -69 -32 0
-57 -10 116 0
45 -31 43 0
-147 195 -182 0
-76 -130 128 0
124 -48 -38 0
84 94 159 0
-195 126 -109 0
143 -27 -112 0
-33 -183 180 0
100 -70 -148 0
-98 119 40 0
-195 -99 -13 0
69 -155 48 0
75 107 116 0
-20 -164 -148 0
79 -101 107 0
148 -35 -108 0
133 -51 -188 0
87 48 -98 0
-187 195 95 0
92 35 -66 0
-100 195 63 0
-92 22 124 0
-137 69 -136 0
-111 119 166 0
32 -108 -139 0
152 -38 102 0
41 -126 -150 0
-52 -45 8 0
60 29 -1 0
60 198 99 0
80 -175 -60 0
-30 184 -123 0
137 61 43 0
200 171 95 0
-100 173 -61 0
-200 -9 -121 0
1 26 -59 0
-60 28 -21 0
4 108 -12 0
63 45 -50 0
107 -183 164 0
30 -165 162 0
-158 -16 118 0
86 -174 -21 0
-187 -105 -24 0
-61 -50 -186 0
50 59 26 0
157 -128 -164 0
-39 179 36 0
-72 140 -68 0
-11 54 1 0
58 -132 -107 0
-197 44 -128 0
-175 156 179 0
-176 -100 -14 0
140 155 -69 0
164 187 93 0
-52 1 96 0
67 184 118 0
184 146 -15 0
159 -113 -197 0
-25 150 180 0
-179 28 -133 0
-93 192 -28 0
-66 102 -84 0
165 168 152 0
119 -166 178 0
96 169 32 0
82 51 -121 0
-21 -48 80 0
-132 84 -82 0
-4 76 -22 0
-126 -96 71 0
-4 -149 -130 0
-40 -23 148 0
-58 -113 -131 0
-62 63 197 0
-52 -47 -126 0
60 -43 -44 0
-12 77 156 0
-155 -29 -74 0
-177 -41 -52 0
193 -6 -99 0
115 123 38 0
-75 27 47 0
-161 -37 -145 0
166 35 140 0
116 181 -195 0
190 167 200 0
-74 177 134 0
-131 102 69 0
-133 -17 73 0
41 198 -141 0
161 20 121 0
81 -88 -169 0
-163 63 150 0
109 70 43 0
78 -36 -65 0
-37 -33 -113 0
127 -57 67 0
174 193 40 0
-14 170 -136 0
115 -42 84 0
27 -113 152 0
191 -28 72 0
