p cnf 150 639
-150 -31 -75 0
20 113 -106 0
-1 117 -72 0
73 -62 -44 0
147 -143 -2 0
68 29 105 0
-105 -46 -70 0
85 30 110 0
126 -4 82 0
-63 122 -106 0
-86 69 -32 0
137 -54 135 0
-127 133 19 0
-72 112 106 0
-49 44 16 0
-46 -26 -87 0
-88 -31 -26 0
14 25 -74 0
-95 -64 87 0
42 131 4 0
30 36 63 0
127 98 102 0
-150 -47 -119 0
-120 -132 -118 0
51 -137 59 0
12 -90 -23 0
-66 -122 -60 0
-48 133 -43 0
77 -131 45 0
78 60 6 0
119 137 76 0
-77 -149 -5 0
108 135 58 0
-27 94 23 0
-7 114 100 0
-28 100 103 0
-138 -35 8 0
-80 -134 -19 0
36 58 72 0
113 37 80 0
-57 -147 105 0
7 -150 -20 0
150 -76 -29 0
18 -8 17 0
-135 97 -63 0
93 143 -148 0
14 -79 124 0
-117 23 -41 0
-99 72 26 0
118 -25 86 0
22 31 36 0
-5 87 135 0
-109 -126 48 0
87 36 89 0
-61 -49 -89 0
-67 138 -13 0
-133 49 -3 0
42 127 -139 0
1 -17 -62 0
56 3 145 0
108 -89 -142 0
-146 5 28 0
-86 1 38 0
12 -84 -15 0
145 2 -70 0
-148 -29 133 0
69 136 -139 0
-107 21 106 0
-122 18 117 0
-106 -147 -77 0
-26 -92 70 0
-139 140 -23 0
-67 -84 42 0
-93 10 -137 0
11 83 -111 0
-21 -140 138 0
133 -95 7 0
148 52 135 0
21 77 -44 0
-138 -80 55 0
20 80 5 0
-112 -51 92 0
-106 42 -124 0
147 -3 62 0
-129 73 64 0
-11 83 76 0
125 -118 -49 0
-1 -147 -20 0
129 72 102 0
148 96 -31 0
90 -104 42 0
-15 9 -37 0
88 96 6 0
71 -19 -89 0
-61 -11 96 0
112 40 48 0
146 -46 144 0
-118 -8 -31 0
8 -117 48 0
-72 133 -50 0
124 -94 108 0
97 -100 140 0
76 -130 -73 0
-131 141 10 0
-74 -112 89 0
96 -101 -77 0
-71 36 -115 0
33 144 93 0
134 126 54 0
136 -101 62 0
144 123 125 0
-51 150 -115 0
-5 50 -18 0
-46 -128 -125 0
-105 -139 130 0
73 -45 -3 0
-84 121 137 0
18 104 54 0
104 82 30 0
19 -60 -134 0
-124 -13 -137 0
-110 81 -28 0
14 -27 127 0
61 -107 -119 0
86 95 -43 0
68 -99 -96 0
93 -125 -144 0
-82 30 -98 0
-47 41 -119 0
129 -13 -16 0
14 -9 137 0
-86 93 -115 0
56 -39 144 0
-33 -17 141 0
149 -68 -133 0
-135 -70 100 0
-36 -148 -117 0
110 -37 122 0
37 -67 77 0
-145 139 -8 0
8 147 77 0
107 -38 109 0
137 -145 142 0
77 -100 -63 0
-36 11 -149 0
146 12 133 0
-47 -19 -88 0
130 -91 21 0
-75 28 100 0
-3 1 138 0
20 14 -12 0
7 -122 -62 0
74 -62 -42 0
-80 109 -70 0
-54 -36 -56 0
91 66 -63 0
-61 -15 92 0
-109 -72 -88 0
36 70 -53 0
-21 39 -92 0
-134 51 -44 0
-69 -29 33 0
106 -116 -15 0
-48 -77 65 0
121 84 113 0
107 -135 125 0
41 -100 76 0
-60 -147 72 0
-55 26 -4 0
-143 89 129 0
48 122 -90 0
40 -100 79 0
-141 -113 -42 0
8 126 -64 0
79 -146 -127 0
-149 1 -30 0
69 57 -62 0
-7 -45 -19 0
-131 -121 2 0
-36 46 33 0
-43 -11 139 0
-13 136 147 0
-115 30 -4 0
-47 -68 -120 0
26 32 125 0
-83 -15 -104 0
119 -110 10 0
-109 6 62 0
79 -88 4 0
119 -16 -90 0
110 66 -81 0
-97 -120 -102 0
66 -106 31 0
-5 2 -4 0
114 68 -49 0
-5 122 -62 0
-38 84 139 0
-43 37 54 0
88 71 31 0
108 -112 21 0
-90 23 -32 0
-69 -128 62 0
78 131 148 0
-100 -58 23 0
-90 -135 13 0
87 -118 85 0
-58 142 -35 0
138 -72 -71 0
-5 27 -51 0
-77 28 141 0
104 72 -83 0
-115 64 59 0
13 109 93 0
145 -125 22 0
-10 137 -40 0
-120 -81 -108 0
1 -112 -6 0
100 -3 93 0
-143 -48 -141 0
124 81 -129 0
61 6 150 0
-97 -51 -29 0
-35 129 -105 0
-31 -122 82 0
-82 -71 98 0
-8 -107 146 0
88 136 -62 0
-137 16 -142 0
-63 -66 -75 0
-130 133 -90 0
-140 -62 -22 0
-113 -42 116 0
54 -74 -13 0
49 -36 129 0
122 23 126 0
73 -12 -45 0
112 17 -128 0
-28 -122 17 0
-16 8 4 0
-44 -31 71 0
-3 -21 -24 0
147 -42 -28 0
20 149 39 0
-74 -64 115 0
20 -133 80 0
-140 -51 -53 0
-114 -80 -125 0
27 -75 132 0
-48 4 -131 0
34 -97 -89 0
-149 97 140 0
-149 -31 -99 0
-41 -118 -116 0
109 -97 91 0
-138 109 -96 0
82 119 -126 0
-130 5 -11 0
106 -135 -35 0
61 58 145 0
24 -45 -112 0
-115 -14 -63 0
-67 -104 1 0
118 54 -35 0
-132 -113 -144 0
-4 -43 41 0
128 -102 56 0
-9 -113 -150 0
3 -107 33 0
73 58 -79 0
-80 -117 1 0
102 125 -32 0
-76 136 81 0
-109 96 13 0
37 101 -117 0
42 -144 127 0
26 96 -102 0
20 131 120 0
-86 147 -41 0
133 141 6 0
143 150 -102 0
99 28 -24 0
124 -66 23 0
-77 84 22 0
-53 88 -94 0
-78 23 90 0
51 98 52 0
103 -86 5 0
-84 46 -82 0
23 106 94 0
-101 -112 -110 0
-125 130 26 0
-88 39 -71 0
-71 150 17 0
-7 147 5 0
20 -134 -71 0
40 -66 104 0
117 -22 -13 0
-45 110 -72 0
121 -7 -144 0
-93 -13 25 0
39 -63 101 0
142 -110 93 0
-44 76 -147 0
55 -1 -7 0
-29 -132 -55 0
69 -94 30 0
103 32 -147 0
-25 -121 37 0
59 -84 145 0
22 96 -64 0
-118 -36 -80 0
70 8 148 0
-128 -24 -110 0
-45 20 138 0
42 25 103 0
-55 134 -111 0
-113 60 -37 0
-36 65 -41 0
-143 55 101 0
-27 -76 -88 0
139 72 123 0
73 24 114 0
-1 -89 118 0
83 -47 -90 0
-69 77 138 0
-148 -95 -82 0
-116 124 82 0
-140 31 83 0
46 89 1 0
-7 77 -50 0
-67 74 -141 0
150 34 -110 0
-61 -2 -83 0
144 -13 -131 0
-2 129 132 0
-34 92 -46 0
-71 -37 51 0
-21 55 -13 0
34 149 3 0
-43 -44 123 0
-93 -119 -147 0
-135 -64 -86 0
65 55 44 0
-44 -77 13 0
9 -4 60 0
-89 13 98 0
-130 131 -144 0
13 139 -84 0
-36 -131 107 0
-147 150 117 0
29 -27 -114 0
-61 -104 76 0
-121 -33 -89 0
-28 38 81 0
-53 -69 -59 0
-114 139 110 0
-48 -146 -87 0
-83 125 -21 0
128 14 -12 0
13 60 94 0
-90 39 30 0
3 -87 -23 0
140 -112 -108 0
70 57 139 0
78 -38 -30 0
-129 -87 -66 0
99 84 149 0
-100 109 79 0
-116 -68 -6 0
-146 -140 15 0
105 64 143 0
-41 -99 -89 0
-81 -21 132 0
-149 125 129 0
116 29 -89 0
11 -55 -70 0
-53 8 73 0
18 9 -2 0
24 -138 -56 0
-22 -102 121 0
-99 -74 5 0
13 -115 -89 0
7 111 72 0
29 -15 148 0
-5 84 42 0
-56 128 75 0
137 51 -49 0
112 -99 86 0
-119 -131 28 0
141 -132 -32 0
143 97 62 0
-56 -6 126 0
-109 33 64 0
136 -140 -30 0
30 43 113 0
25 -140 8 0
33 -68 -100 0
-5 -16 -66 0
89 114 106 0
77 -90 -140 0
91 -23 -101 0
5 -18 -68 0
86 -78 77 0
96 38 -29 0
-117 -56 -150 0
-118 104 -100 0
66 -77 47 0
83 -124 127 0
-143 17 -27 0
122 113 141 0
-108 -131 -13 0
118 31 -108 0
-59 92 47 0
115 -45 -107 0
53 33 -112 0
35 -116 -2 0
142 -33 55 0
15 -14 43 0
-71 103 121 0
140 -96 57 0
76 130 -57 0
143 118 -87 0
139 61 97 0
-107 65 94 0
-99 50 54 0
-25 -112 142 0
-25 132 -40 0
86 -87 -126 0
35 -95 26 0
-50 75 -4 0
-19 -78 -69 0
-122 -112 100 0
89 52 106 0
35 12 -59 0
69 32 -114 0
45 54 2 0
-46 34 60 0
-99 -80 59 0
-92 22 116 0
-18 -82 35 0
-3 149 55 0
-66 -33 -13 0
24 128 -63 0
30 8 68 0
12 80 150 0
103 -89 -23 0
54 -121 -47 0
-59 147 47 0
55 -47 -79 0
-6 -126 105 0
119 122 103 0
43 142 -146 0
-43 76 88 0
17 -20 -104 0
-120 140 31 0
-69 70 -147 0
78 -138 -135 0
80 78 85 0
-95 -119 36 0
98 15 -123 0
70 60 137 0
102 -30 34 0
-94 -38 -86 0
-114 -45 3 0
-56 16 -118 0
-55 66 -103 0
88 -55 -145 0
-150 -49 -141 0
-22 -131 54 0
-61 -129 78 0
-93 10 -101 0
68 -107 35 0
105 -42 -19 0
42 -119 -46 0
79 -69 93 0
69 116 88 0
-99 55 63 0
-1 23 -33 0
-134 129 77 0
14 -92 -63 0
-60 -7 145 0
-11 -43 80 0
-113 12 -104 0
-142 43 97 0
5 2 -124 0
149 -105 48 0
5 30 -37 0
14 31 -42 0
111 67 100 0
122 85 -112 0
69 132 -45 0
85 -127 47 0
59 -42 -26 0
142 84 -91 0
73 -95 4 0
101 -14 -119 0
-149 -148 -52 0
-137 -144 -105 0
-26 8 -103 0
47 136 89 0
-81 45 -55 0
-25 111 -60 0
-128 67 -36 0
-90 14 -47 0
-114 146 -59 0
-132 -22 -13 0
-90 7 -92 0
143 115 134 0
79 -128 -27 0
-133 -119 -125 0
-20 -83 103 0
-30 -52 -117 0
102 142 -135 0
104 -61 -59 0
-149 -80 121 0
-81 -148 48 0
-120 98 126 0
87 62 114 0
-113 143 88 0
97 -76 -61 0
25 -104 -133 0
-36 80 -19 0
78 126 141 0
53 45 84 0
43 143 134 0
18 70 20 0
21 -117 79 0
81 -122 -146 0
-71 34 -49 0
-45 -66 83 0
-123 -3 131 0
-47 119 133 0
50 105 -74 0
119 -16 -45 0
75 -103 -104 0
-1 124 -45 0
-61 -30 -134 0
-106 62 -54 0
90 60 -150 0
-141 45 146 0
-132 -83 100 0
36 -143 78 0
-133 -52 -108 0
-71 -76 28 0
118 15 68 0
-126 43 -103 0
6 -139 34 0
-5 -4 45 0
-124 142 -36 0
52 -2 38 0
132 141 -27 0
-82 -138 -56 0
39 59 43 0
-69 -19 -101 0
-21 -66 -140 0
43 -55 -50 0
-109 -102 31 0
131 -25 -103 0
-62 -59 -115 0
46 21 67 0
115 -34 -40 0
-133 127 68 0
88 116 -52 0
94 -14 -135 0
-57 -38 -13 0
103 -2 141 0
63 112 -98 0
-149 -133 -114 0
82 120 60 0
55 -128 -10 0
75 -15 -84 0
-118 98 -27 0
-135 -31 40 0
-103 -40 -72 0
-91 -41 68 0
-30 116 63 0
122 6 17 0
-101 117 118 0
-12 -108 117 0
-131 145 11 0
-103 -125 -126 0
-14 -61 -5 0
-148 -35 -57 0
3 144 -55 0
-31 82 -81 0
-50 -15 59 0
95 -69 53 0
-57 -28 -39 0
-8 -70 -142 0
140 28 -139 0
145 119 -59 0
-124 135 -10 0
148 -139 -102 0
108 46 8 0
-107 -51 -11 0
-149 -18 147 0
-120 -98 -138 0
70 71 17 0
88 -68 43 0
-118 -59 -4 0
135 127 -35 0
-5 34 -42 0
47 -125 -96 0
44 -125 -38 0
-57 74 -18 0
139 -41 -107 0
113 34 -120 0
71 -105 7 0
101 -85 113 0
98 -138 -60 0
130 126 -25 0
41 33 -145 0
100 -5 84 0
-140 17 22 0
-121 139 -61 0
41 105 -53 0
-125 13 54 0
132 -23 51 0
67 -75 -95 0
73 -124 -42 0
-45 -75 -73 0
118 20 117 0
-100 -116 146 0
2 97 -31 0
43 -49 116 0
53 -8 140 0
-8 18 -46 0
42 -104 -56 0
143 29 94 0
-100 -44 -84 0
50 -82 -108 0
74 75 -59 0
-129 66 8 0
34 15 -12 0
-18 -139 41 0
124 -102 108 0
-53 7 -50 0
-69 13 56 0
-125 107 137 0
