p cnf 150 639
-7 45 -150 0
144 11 -143 0
97 36 113 0
48 -87 -134 0
-144 120 101 0
27 -114 65 0
47 -34 -78 0
-85 30 106 0
119 -27 -64 0
-77 84 -67 0
84 -2 6 0
86 135 -12 0
133 -77 30 0
117 -112 12 0
-74 -139 46 0
66 -93 -33 0
-138 -31 -100 0
64 -80 28 0
105 -28 -68 0
28 -9 -26 0
-146 -21 -44 0
81 -134 -65 0
26 35 118 0
126 -27 83 0
2 25 -116 0
65 4 -135 0
-138 41 43 0
-25 100 84 0
145 63 -119 0
-82 -143 -116 0
61 141 99 0
4 -142 -3 0
-31 135 142 0
1 86 -50 0
-135 -123 -42 0
14 49 -3 0
-17 -109 147 0
120 97 101 0
18 149 -144 0
-33 117 -35 0
79 40 -144 0
61 -79 150 0
-150 139 125 0
-23 -14 -37 0
93 -135 130 0
132 57 -68 0
-25 112 21 0
143 -125 94 0
-105 -23 -70 0
77 17 -110 0
-11 -48 -119 0
-25 -71 85 0
19 144 31 0
-133 78 138 0
12 -148 -45 0
-102 -89 139 0
-48 -6 15 0
-6 21 146 0
-83 -115 38 0
96 -108 129 0
4 -1 27 0
55 98 -40 0
74 -124 10 0
-147 11 101 0
-69 109 -13 0
-125 41 74 0
63 14 -137 0
8 -25 15 0
-69 -118 -79 0
-68 35 12 0
145 123 -89 0
-111 -143 48 0
116 93 92 0
83 -99 139 0
99 69 129 0
131 122 29 0
-91 67 104 0
74 -114 -131 0
131 -74 -117 0
80 -96 10 0
51 -124 -11 0
-17 -134 27 0
113 94 90 0
135 -27 49 0
-20 118 119 0
-28 97 -114 0
-50 -98 -14 0
134 -85 40 0
107 -147 70 0
-79 -123 -100 0
130 -107 -21 0
135 -124 118 0
15 -139 75 0
-82 42 -18 0
10 8 -83 0
-6 95 82 0
-137 -78 -87 0
114 -109 -147 0
44 107 -133 0
-116 -54 28 0
149 79 -28 0
-67 84 -150 0
133 15 47 0
-27 99 -46 0
-86 -27 73 0
35 127 15 0
-9 34 135 0
-125 100 60 0
-107 -1 -47 0
54 63 94 0
46 141 127 0
-93 -23 69 0
90 25 122 0
130 -94 -12 0
138 -94 -44 0
-63 86 74 0
-10 -82 93 0
-104 -20 30 0
94 -136 35 0
69 -14 130 0
58 57 86 0
-95 143 17 0
54 -145 -113 0
-11 12 -89 0
52 -135 -1 0
-104 100 1 0
117 -95 7 0
-106 -101 -89 0
-10 102 -83 0
35 42 52 0
5 16 103 0
10 -110 -145 0
64 98 -62 0
-24 -78 38 0
-102 28 -35 0
-31 70 1 0
85 -77 35 0
74 -62 -6 0
15 4 -7 0
44 140 42 0
-126 146 25 0
42 -83 -98 0
48 -72 -133 0
-74 -15 -138 0
-117 118 149 0
71 -1 142 0
-14 101 63 0
-125 49 32 0
42 -108 -18 0
110 -48 -38 0
-147 121 -116 0
-47 77 50 0
-43 -41 -48 0
51 -134 22 0
-42 56 87 0
-8 -149 75 0
25 72 -77 0
-48 40 -65 0
-134 146 -57 0
90 9 -72 0
49 51 118 0
88 -142 -60 0
-150 -94 -21 0
-88 -63 9 0
124 -93 -147 0
89 -123 -34 0
4 2 -124 0
-143 112 -78 0
73 -120 90 0
-64 94 -98 0
-98 147 -35 0
-1 -45 86 0
-68 27 -29 0
95 91 106 0
109 -105 115 0
-146 -68 13 0
10 64 -52 0
84 51 -40 0
-58 36 105 0
16 54 -123 0
69 49 -31 0
-106 137 -64 0
-94 62 -20 0
-42 103 -71 0
-16 -112 113 0
-42 -130 106 0
8 118 135 0
10 -28 35 0
-3 96 101 0
29 -131 124 0
72 66 -150 0
-16 -113 -44 0
-76 146 -45 0
5 107 75 0
-16 118 -11 0
20 8 90 0
-134 132 117 0
-111 114 92 0
59 89 19 0
69 -34 118 0
59 -139 100 0
-21 112 45 0
54 95 50 0
-108 -84 -3 0
48 -82 90 0
52 128 20 0
9 -140 79 0
6 -141 -133 0
-110 33 82 0
-10 -26 -4 0
-148 -61 20 0
-69 -16 -7 0
-43 -116 -29 0
48 -133 -134 0
-86 66 39 0
85 12 39 0
-63 -137 -111 0
-72 141 17 0
-44 145 -35 0
49 5 -110 0
-99 117 118 0
-35 -65 -14 0
-22 57 49 0
-148 -46 -15 0
-99 22 100 0
-39 84 -30 0
-103 15 -144 0
-29 23 6 0
-7 -146 -47 0
-101 124 -56 0
-59 -53 -56 0
-12 101 104 0
-88 91 6 0
13 14 -141 0
-93 13 -130 0
95 111 -76 0
74 18 33 0
-96 -4 -47 0
11 113 -103 0
29 80 138 0
-4 61 35 0
-145 24 31 0
6 11 -72 0
-51 27 -86 0
34 -46 -83 0
-101 10 51 0
75 143 110 0
-95 -53 84 0
-127 73 52 0
27 44 -15 0
-7 -54 127 0
-64 -37 2 0
-25 -104 -3 0
-89 -126 134 0
103 -22 145 0
69 -13 -72 0
-103 20 -112 0
120 114 34 0
10 -44 -98 0
-78 -106 -92 0
-136 -82 -99 0
-148 56 50 0
49 17 137 0
-113 106 22 0
58 -113 60 0
16 132 -85 0
-79 114 -101 0
66 47 -147 0
-43 125 -138 0
76 -103 -21 0
41 -29 -110 0
105 -12 23 0
-82 130 115 0
-95 -108 93 0
-85 65 11 0
-87 -5 60 0
-51 -65 -97 0
-6 134 -31 0
-12 -36 104 0
143 -58 20 0
-5 -120 -27 0
-128 133 109 0
-58 62 -71 0
39 65 89 0
128 -144 -134 0
79 -38 90 0
-135 -35 -12 0
-16 15 -114 0
-86 1 -9 0
-124 99 16 0
56 -100 18 0
-22 -92 24 0
-81 -112 -107 0
41 -68 62 0
-136 -42 116 0
16 -100 18 0
-127 66 -23 0
16 -40 84 0
85 110 -33 0
143 122 123 0
-58 77 121 0
-50 116 70 0
-42 -108 92 0
88 -47 146 0
100 46 -117 0
-67 -4 -60 0
147 64 115 0
-77 -44 47 0
-9 85 66 0
130 -52 -3 0
99 -43 -115 0
85 -38 133 0
-133 -60 70 0
-7 -34 -150 0
62 -141 82 0
-72 -16 40 0
-138 -2 78 0
-143 12 -139 0
66 45 125 0
-29 90 -115 0
-138 22 -88 0
41 -17 -126 0
61 136 -127 0
-56 20 146 0
31 -109 44 0
-140 134 -148 0
-101 45 20 0
47 -33 -66 0
142 -109 113 0
-114 -24 69 0
-37 -86 117 0
81 -39 -129 0
49 75 18 0
69 -33 -74 0
-17 89 81 0
-17 143 29 0
1 116 7 0
51 -30 -54 0
-77 81 -63 0
-42 -90 -83 0
63 45 -23 0
-104 -116 84 0
92 147 -115 0
123 -1 93 0
142 -51 -48 0
56 -85 -79 0
-102 -121 -131 0
112 -129 -111 0
-80 149 130 0
-50 -34 -106 0
7 -97 -6 0
38 -36 20 0
68 -55 88 0
-44 16 148 0
-31 25 36 0
130 -50 -11 0
95 90 77 0
16 100 132 0
-8 -2 -84 0
-134 -5 21 0
71 -55 62 0
-51 48 -27 0
89 -69 -148 0
-34 148 -21 0
-28 98 13 0
17 -126 107 0
-95 147 78 0
146 -7 20 0
-22 88 -56 0
75 -54 77 0
69 127 -54 0
9 30 -96 0
8 -92 -57 0
-45 -79 -144 0
-139 5 77 0
71 -142 85 0
104 146 -54 0
116 -75 26 0
-51 146 -26 0
-149 19 102 0
7 -93 -40 0
-130 97 -136 0
-49 67 -37 0
-136 -37 -84 0
-84 -124 -132 0
140 12 50 0
22 -40 -14 0
146 -79 133 0
134 118 -142 0
90 31 71 0
26 -63 99 0
71 -132 -92 0
-35 50 -65 0
150 73 84 0
147 99 38 0
-69 -26 -40 0
145 -139 115 0
49 -34 32 0
-111 29 -25 0
-41 -65 -10 0
35 106 -20 0
145 -77 -133 0
1 20 -17 0
6 -32 108 0
-95 100 -119 0
50 100 130 0
-101 44 45 0
-15 -81 -52 0
4 -88 -95 0
-70 42 135 0
40 85 -115 0
126 -48 -120 0
-96 -150 -21 0
147 131 -22 0
-92 95 -43 0
36 -25 124 0
-135 123 44 0
-40 20 -118 0
63 -68 -38 0
133 29 -63 0
98 36 -96 0
72 17 57 0
-73 109 78 0
-120 -123 -129 0
-96 -86 -36 0
7 33 110 0
-122 -150 133 0
112 79 -20 0
112 -75 -98 0
49 56 145 0
29 28 -73 0
92 48 -33 0
124 -3 73 0
-146 -58 61 0
142 22 -78 0
-20 -111 -104 0
79 106 150 0
-135 -149 85 0
127 -140 -117 0
-127 -31 -83 0
3 47 -103 0
-78 -87 -131 0
149 53 -115 0
-128 89 -7 0
-118 -17 18 0
67 79 72 0
67 131 66 0
53 104 100 0
102 -118 30 0
-135 -44 126 0
-115 119 -74 0
75 96 -33 0
27 133 134 0
-73 31 -55 0
-91 -88 113 0
-118 -16 -122 0
96 87 54 0
27 -68 -39 0
-28 47 148 0
33 67 -14 0
42 84 -27 0
-111 83 -40 0
70 -56 113 0
40 7 48 0
75 147 104 0
-16 28 -72 0
116 60 -113 0
42 -31 -147 0
50 46 -16 0
11 -102 -146 0
86 -139 134 0
-102 65 -149 0
7 -9 44 0
-9 77 15 0
48 -25 93 0
-32 97 -122 0
8 87 -134 0
55 70 46 0
-74 56 21 0
-44 43 -37 0
86 130 -146 0
43 139 102 0
-121 -136 -116 0
133 -15 31 0
90 45 149 0
43 38 54 0
-135 -8 102 0
141 103 65 0
44 -108 27 0
-80 34 -120 0
121 -15 -34 0
20 -99 9 0
39 110 -94 0
68 51 -126 0
107 118 9 0
-44 -61 116 0
69 -84 -102 0
-92 23 22 0
-101 -61 46 0
-19 -30 20 0
89 -44 117 0
75 -36 38 0
90 -64 140 0
123 100 23 0
-41 -67 -94 0
61 -112 111 0
73 -13 132 0
-131 56 -101 0
148 47 -100 0
7 139 6 0
14 7 -13 0
-4 52 105 0
2 -40 144 0
-23 68 37 0
-116 46 128 0
-37 -105 129 0
-41 128 107 0
-64 -102 147 0
80 -8 121 0
-89 -129 -27 0
-129 7 -130 0
-16 68 -5 0
-113 38 69 0
124 93 -67 0
-124 46 48 0
90 -61 38 0
-149 -49 48 0
25 -22 -102 0
-18 109 -2 0
84 28 -58 0
2 88 -119 0
102 -79 -123 0
55 35 -1 0
150 23 -138 0
14 -106 -56 0
88 -17 97 0
93 -91 149 0
106 -150 114 0
-97 -71 -79 0
27 75 61 0
-65 -40 76 0
51 -31 -128 0
70 -38 -47 0
34 -28 -123 0
148 8 60 0
-26 9 46 0
-144 84 4 0
26 -7 77 0
-56 -82 -110 0
-58 -17 -113 0
-17 98 59 0
-115 -22 92 0
130 43 83 0
147 -37 38 0
-66 88 -142 0
78 -89 -118 0
-26 145 132 0
-76 51 -28 0
87 -26 52 0
-58 -107 120 0
26 110 3 0
6 124 61 0
67 -124 -2 0
62 -20 -45 0
-78 1 -100 0
-110 115 -37 0
-44 -51 -17 0
114 -142 -116 0
-67 -126 -4 0
37 94 -89 0
84 1 67 0
60 -139 70 0
97 123 -87 0
15 149 -76 0
16 -91 101 0
131 -85 83 0
-30 -54 39 0
-56 -80 -52 0
-94 149 -28 0
105 -64 -132 0
148 -38 -37 0
59 125 -105 0
-25 -20 119 0
55 88 86 0
-95 -13 109 0
33 -68 138 0
-147 119 -39 0
32 -115 -149 0
-57 -22 80 0
19 -92 -65 0
-149 103 -119 0
141 93 -127 0
-95 41 -125 0
6 52 95 0
-60 -13 116 0
-126 83 20 0
91 26 -73 0
59 -72 105 0
-17 -128 13 0
-37 82 23 0
46 -150 92 0
113 -66 -115 0
95 -83 -33 0
8 -65 127 0
97 -140 73 0
-54 63 -143 0
-107 88 -17 0
-144 52 14 0
31 -109 13 0
68 -149 -11 0
-75 -31 -125 0
-50 -53 -73 0
-11 -117 -29 0
26 137 41 0
112 49 -146 0
97 119 -134 0
7 -140 -16 0
-143 -62 -103 0
-36 92 -116 0
-109 -80 -70 0
-49 90 75 0
-101 64 -145 0
-41 -60 129 0
-58 -19 122 0
-3 -12 7 0
-123 -36 -134 0
61 -148 23 0
57 55 -134 0
-56 -76 -139 0
-148 -100 101 0
143 93 141 0
-19 -1 -29 0
-94 -80 78 0
37 2 -115 0
-141 -120 4 0
-116 117 85 0
-65 136 -62 0
46 2 -71 0
34 131 -18 0
