p cnf 200 852
86 121 34 0
-18 70 31 0
162 -191 17 0
-43 146 -177 0
80 -40 86 0
155 -115 -165 0
-9 62 -57 0
128 156 131 0
-21 -7 184 0
-198 -177 -86 0
123 60 153 0
-180 -183 68 0
-189 147 -142 0
-157 10 -147 0
-44 -198 75 0
116 100 182 0
185 -63 -6 0
110 -93 113 0
-119 -72 -170 0
-9 185 26 0
174 71 132 0
133 -13 45 0
-92 194 13 0
-86 1 -87 0
69 86 -85 0
-26 -200 -153 0
-191 -36 -81 0
-86 -118 -124 0
-84 83 80 0
-81 -149 131 0
-9 92 -143 0
-59 50 -94 0
-148 75 166 0
95 -192 67 0
-97 -5 76 0
-197 81 -40 0
-104 -17 178 0
91 -46 125 0
133 -45 -1 0
-7 -120 106 0
140 -196 -10 0
-180 130 178 0
-16 4 -2 0
74 23 -53 0
95 91 -162 0
190 36 -184 0
-61 -59 -124 0
-98 -4 -150 0
192 -181 -114 0
-73 82 -193 0
111 -149 -79 0
-119 169 -108 0
163 -125 20 0
154 -130 128 0
88 93 -169 0
179 74 -73 0
-171 -177 -6 0
125 116 -172 0
-150 -97 153 0
-24 86 8 0
19 13 -198 0
84 46 -4 0
-63 143 169 0
-11 126 -152 0
30 -159 -143 0
-72 -96 -36 0
106 -26 -140 0
-24 -140 91 0
-128 79 -99 0
-197 64 -128 0
-160 -133 123 0
-80 36 132 0
189 -120 73 0
-181 39 -14 0
-45 134 -158 0
137 -42 -125 0
-45 -43 -72 0
29 169 152 0
173 119 180 0
-39 -84 -60 0
182 -71 127 0
-55 186 -138 0
96 76 62 0
78 -57 -65 0
-150 -43 121 0
-17 198 -132 0
-61 -165 166 0
-141 50 67 0
183 69 -82 0
-56 -198 76 0
-88 181 -154 0
-186 -1 63 0
119 39 -27 0
-136 156 65 0
96 -82 180 0
84 63 197 0
-121 65 -142 0
-40 -89 154 0
101 -24 -78 0
-170 -37 66 0
126 124 96 0
-185 4 55 0
70 127 158 0
40 72 173 0
16 183 5 0
-74 97 -76 0
113 -161 14 0
-12 136 96 0
157 110 -167 0
15 175 160 0
53 138 133 0
11 155 -75 0
-197 -9 -71 0
-124 47 -62 0
-103 74 149 0
-158 -68 -128 0
-26 56 101 0
-3 152 52 0
104 32 -195 0
68 -108 -186 0
-127 -36 -194 0
188 -114 150 0
-184 163 62 0
-87 104 -126 0
61 2 -5 0
198 191 -66 0
150 182 121 0
-53 124 87 0
161 72 -22 0
-154 21 67 0
-45 151 18 0
111 88 -131 0
-63 72 101 0
-159 135 -48 0
-59 173 -100 0
-133 65 -125 0
7 23 122 0
-44 120 -187 0
192 178 29 0
-103 175 -40 0
-180 -72 -79 0
-123 115 -188 0
112 -24 95 0
-96 -182 44 0
-65 193 96 0
-4 -98 176 0
-131 160 -36 0
-5 -114 -11 0
26 -99 -14 0
80 -125 65 0
-39 -136 -161 0
21 8 36 0
106 158 -145 0
-62 146 -174 0
3 47 -135 0
62 -191 -34 0
52 -193 -188 0
190 102 -62 0
148 -37 116 0
-67 190 35 0
6 70 -127 0
-8 -52 -57 0
87 77 12 0
49 -150 -117 0
19 -169 139 0
-143 160 -120 0
143 30 -187 0
-133 142 -42 0
-124 102 53 0
-134 66 -191 0
132 191 -181 0
-44 118 -99 0
-190 145 -23 0
-16 -139 114 0
174 28 102 0
11 -95 -31 0
120 132 -53 0
-151 -83 -145 0
-46 25 66 0
-39 92 -182 0
-59 -6 -86 0
-184 -69 89 0
126 64 -157 0
157 124 127 0
-122 -24 -14 0
89 26 -195 0
-38 91 134 0
-146 27 77 0
-98 131 -71 0
143 26 27 0
111 115 -41 0
-38 5 -175 0
-154 138 121 0
129 185 190 0
68 50 -32 0
76 -189 106 0
-127 54 29 0
105 -35 115 0
159 38 -191 0
72 -91 161 0
-167 18 34 0
-179 77 -65 0
31 35 75 0
-36 3 148 0
155 120 100 0
-109 -196 -66 0
7 44 -3 0
-159 -26 67 0
-47 -156 -197 0
102 -83 39 0
192 -155 -16 0
187 110 125 0
123 14 96 0
161 -5 11 0
-188 -176 -196 0
45 55 107 0
92 67 -35 0
7 105 -57 0
-120 -167 45 0
56 93 -165 0
-171 26 -9 0
182 -104 -173 0
-114 -89 10 0
92 -174 -11 0
168 149 -36 0
-157 -126 -96 0
152 -161 29 0
105 75 -148 0
22 -88 160 0
9 137 38 0
-23 -94 30 0
-187 -36 135 0
180 11 -105 0
158 -44 13 0
106 196 -16 0
176 -23 89 0
-190 18 22 0
14 182 -185 0
32 53 18 0
111 55 33 0
57 -116 190 0
157 45 -169 0
53 22 -84 0
191 126 106 0
119 50 37 0
-177 189 -7 0
164 -21 35 0
-48 124 87 0
-71 -46 -104 0
-65 -87 1 0
64 -163 -170 0
-90 110 6 0
11 28 6 0
31 87 132 0
67 -65 54 0
157 97 92 0
-76 -37 36 0
126 67 195 0
112 -175 19 0
53 182 153 0
-172 -56 -73 0
-131 56 -161 0
39 108 -49 0
-149 -70 8 0
-164 145 192 0
165 -118 18 0
-97 129 -64 0
104 -29 168 0
166 -123 147 0
-101 -189 19 0
-95 200 89 0
140 192 -121 0
132 -92 69 0
-117 -14 94 0
99 -111 193 0
99 192 -40 0
-49 16 86 0
-11 -20 4 0
46 -92 -138 0
175 58 26 0
-62 -24 16 0
75 -102 -131 0
-148 3 -35 0
186 141 -56 0
-20 -119 63 0
45 60 10 0
118 -145 -46 0
-23 -126 -13 0
134 200 -181 0
-17 125 -67 0
17 -68 -82 0
-171 -64 -26 0
183 -19 -64 0
-136 168 -161 0
118 98 -68 0
-120 155 179 0
148 -164 -20 0
154 132 -166 0
-95 42 34 0
-34 94 -51 0
63 33 -13 0
-2 -15 135 0
-160 6 -49 0
166 -36 3 0
-92 65 -33 0
-115 -36 105 0
176 -117 41 0
-198 133 187 0
-57 -58 122 0
-22 -177 -131 0
109 -94 159 0
186 184 56 0
133 -160 172 0
-137 -29 -69 0
-110 -73 92 0
-109 69 13 0
-70 126 -32 0
33 122 -170 0
21 159 143 0
-5 130 -28 0
-160 77 -107 0
-124 54 -156 0
-15 146 -166 0
16 -198 -88 0
-197 -20 -110 0
-26 -62 -36 0
100 154 13 0
-69 173 -43 0
-150 -76 114 0
103 194 52 0
-34 135 90 0
22 -149 -21 0
-112 124 -185 0
155 37 -65 0
165 -74 -43 0
42 135 -81 0
-52 200 174 0
-41 -88 79 0
-195 160 -149 0
-29 -97 -105 0
-67 90 -200 0
-2 -70 133 0
-72 -6 -176 0
-60 -88 -30 0
153 -46 -152 0
93 -104 197 0
-124 180 -9 0
141 108 -110 0
-1 122 94 0
145 108 168 0
44 36 46 0
36 -193 -84 0
191 175 -123 0
-115 -73 11 0
-65 8 198 0
189 -167 87 0
-45 78 -28 0
-18 -119 -113 0
152 -18 184 0
-140 83 99 0
-138 106 26 0
192 -99 -199 0
107 91 159 0
46 58 38 0
90 -77 137 0
-158 104 10 0
120 134 92 0
118 159 -72 0
59 -34 144 0
-149 -52 -110 0
136 -47 -5 0
-94 108 88 0
80 41 -109 0
-189 -184 -1 0
-79 -98 40 0
70 -76 97 0
189 35 162 0
103 147 -189 0
-200 128 121 0
-25 -2 88 0
-24 -53 -47 0
35 111 -175 0
108 -141 -22 0
157 63 -27 0
-137 -59 197 0
-88 192 -32 0
-189 187 -48 0
-184 72 -80 0
23 145 133 0
-111 64 -122 0
105 -167 -20 0
-63 106 -39 0
-139 106 76 0
-190 -117 -39 0
-183 -146 -178 0
37 -142 120 0
182 -113 -149 0
4 189 -32 0
94 -143 33 0
59 -73 -37 0
-108 -197 8 0
-64 161 -35 0
45 24 -56 0
-89 157 -199 0
161 59 170 0
8 -138 -164 0
-46 9 -99 0
37 133 124 0
188 24 100 0
-63 -194 21 0
176 -152 -18 0
177 92 -51 0
-69 94 128 0
113 2 -89 0
179 196 -45 0
-35 -1 189 0
-67 20 -62 0
145 -163 123 0
-92 50 22 0
-152 -70 -155 0
-57 104 -131 0
61 74 49 0
200 -175 50 0
111 112 164 0
-72 -66 62 0
53 -11 50 0
-145 197 -93 0
-145 -99 23 0
-128 151 53 0
13 -112 -103 0
-57 95 100 0
-137 -53 160 0
67 14 -147 0
-4 159 -28 0
4 159 149 0
-116 82 -60 0
-127 -98 155 0
-186 168 13 0
192 200 159 0
30 164 41 0
78 194 -149 0
-135 45 12 0
108 21 -128 0
68 -99 89 0
-55 -109 182 0
-102 -22 -116 0
-136 -119 -135 0
-52 103 113 0
-49 -167 78 0
121 106 -15 0
39 45 -160 0
-44 -114 -122 0
81 135 -133 0
-155 19 -191 0
169 -35 -187 0
164 -95 135 0
-4 -30 -115 0
158 -140 -40 0
-112 33 -23 0
-107 -129 -185 0
191 -170 189 0
115 92 -192 0
-161 21 174 0
128 -130 18 0
-131 187 -193 0
-81 -58 66 0
111 152 -84 0
4 45 87 0
119 149 -72 0
22 99 -62 0
98 -128 19 0
162 -70 -155 0
74 80 117 0
-70 -66 -133 0
-60 150 -7 0
146 -130 -91 0
-63 -111 146 0
131 160 -127 0
-57 -49 -90 0
169 156 132 0
-28 132 68 0
41 -156 38 0
-150 -100 -76 0
-23 188 -49 0
-170 -48 118 0
119 127 -49 0
-154 -145 155 0
-152 174 191 0
-50 -62 125 0
-58 6 24 0
178 -156 -191 0
-196 -150 -5 0
-122 -187 89 0
45 -187 -103 0
194 19 -118 0
53 149 -109 0
-33 200 69 0
113 57 -109 0
1 -118 -44 0
-65 -163 -7 0
-23 106 145 0
-89 59 -57 0
124 -80 -29 0
-65 -23 123 0
23 -143 71 0
-194 121 63 0
83 -53 41 0
114 29 -157 0
-123 -32 -171 0
124 114 -49 0
13 -108 41 0
99 135 -93 0
79 180 67 0
53 -51 -162 0
-157 -67 -21 0
-125 192 -106 0
85 -80 -128 0
-183 -8 198 0
168 -126 -122 0
124 164 23 0
-26 194 48 0
16 -151 94 0
-46 130 -28 0
-21 -142 -115 0
-102 -184 27 0
175 84 -5 0
173 76 194 0
182 -90 -200 0
-192 15 117 0
129 82 -77 0
-28 117 -12 0
-148 54 -75 0
-189 133 39 0
-93 -67 -89 0
-57 9 117 0
-48 -177 -124 0
134 86 -190 0
178 -176 -94 0
89 112 83 0
-93 -45 -4 0
-63 62 -115 0
37 22 -28 0
24 88 -53 0
-117 -5 -178 0
50 4 83 0
78 143 -18 0
-106 -169 189 0
-167 50 38 0
118 4 -102 0
5 -118 141 0
-172 -176 -8 0
121 -4 -183 0
41 29 33 0
48 190 21 0
47 -107 -106 0
5 -57 -17 0
-36 -163 56 0
151 199 -131 0
-62 -24 100 0
200 182 -75 0
-51 66 -30 0
108 105 128 0
-144 14 -173 0
25 188 41 0
-166 53 -157 0
-184 165 -177 0
160 162 66 0
39 118 -43 0
-68 -158 134 0
165 186 -130 0
-40 166 -10 0
29 51 -182 0
145 41 -187 0
48 -188 -167 0
-1 -73 -68 0
-159 -181 109 0
52 -137 -126 0
167 -148 50 0
-134 80 198 0
-67 -39 196 0
-19 81 153 0
-24 -84 -152 0
116 -48 -135 0
-195 115 134 0
-155 -124 -127 0
-22 -60 -3 0
-101 -108 -120 0
-31 45 -197 0
154 -140 -139 0
-161 -21 -111 0
116 -100 -138 0
80 -130 -102 0
17 -132 -25 0
46 98 -155 0
59 81 -151 0
-9 135 53 0
-83 -114 -148 0
-171 -145 -196 0
-58 -61 6 0
-92 59 -45 0
-146 -21 161 0
91 172 -56 0
-184 -149 176 0
167 -133 -45 0
17 -48 128 0
-82 -169 117 0
132 86 162 0
3 -46 51 0
83 22 -12 0
-139 -105 32 0
167 -144 -119 0
-81 -139 -138 0
168 -109 -20 0
66 93 -91 0
84 -81 193 0
127 -131 -177 0
-151 -149 -115 0
99 -131 -126 0
164 129 118 0
193 -6 128 0
86 -111 -124 0
-124 118 18 0
-18 59 -197 0
101 126 96 0
-37 198 135 0
-173 134 128 0
39 97 -68 0
22 -191 62 0
-165 83 32 0
90 -178 -59 0
-16 -175 -73 0
196 -49 22 0
57 -54 -132 0
-7 109 -108 0
137 19 -31 0
-34 -9 -46 0
-162 173 91 0
-93 -15 -59 0
-48 -12 114 0
-189 72 60 0
-16 84 -26 0
198 147 -43 0
-122 187 47 0
-144 20 10 0
-188 141 -95 0
-175 -58 197 0
-47 52 121 0
75 46 192 0
-181 -55 -69 0
190 -159 85 0
27 88 44 0
65 -114 165 0
-117 -178 -87 0
-34 -4 105 0
13 116 -96 0
100 35 7 0
-99 109 139 0
68 -164 100 0
135 -127 -109 0
-111 -25 -182 0
-134 65 -68 0
-98 -140 -137 0
160 31 -21 0
166 75 117 0
-120 169 77 0
74 -33 -110 0
-128 -166 -109 0
145 181 -97 0
-102 -35 108 0
-197 79 17 0
173 -88 -64 0
160 -4 181 0
-16 -72 -53 0
80 48 -2 0
134 -172 52 0
164 -93 189 0
178 31 -130 0
-89 195 193 0
38 110 -187 0
57 -154 -121 0
-96 43 -169 0
-160 -122 173 0
-38 -119 59 0
158 95 -90 0
-56 195 -28 0
-194 50 137 0
87 -72 37 0
112 -175 -191 0
-71 149 -81 0
-86 -199 64 0
124 100 -55 0
118 53 184 0
-156 184 -125 0
139 -56 97 0
51 75 94 0
-126 -160 -185 0
-137 -64 -62 0
-44 101 24 0
200 -121 142 0
64 -116 -11 0
-95 -7 104 0
-200 151 -15 0
-117 -127 119 0
49 -178 -128 0
-175 48 57 0
132 2 134 0
161 -150 13 0
89 54 187 0
126 -71 176 0
-34 40 149 0
-103 13 21 0
172 -32 -57 0
-168 54 188 0
-176 26 -195 0
-158 -131 57 0
122 83 98 0
12 112 134 0
79 -81 106 0
-131 37 -155 0
-136 89 -178 0
77 186 168 0
-31 -26 145 0
6 138 173 0
-185 -194 -86 0
-111 -87 -2 0
-141 -178 82 0
22 68 -182 0
-142 48 -181 0
57 164 72 0
110 72 -68 0
45 -100 -60 0
-104 88 118 0
-165 30 41 0
-31 -127 -32 0
-38 -160 39 0
-154 60 -113 0
132 104 79 0
-158 -145 148 0
-106 172 155 0
55 117 -151 0
-113 130 72 0
-103 119 -167 0
107 193 54 0
17 -59 35 0
-13 -162 117 0
-161 -103 67 0
68 -200 -121 0
116 -24 -44 0
-171 -28 -153 0
-192 -111 -139 0
-140 100 35 0
-131 -167 -116 0
122 118 31 0
153 40 174 0
-148 -52 -169 0
-48 -52 -174 0
-193 121 -28 0
86 -79 128 0
-119 -99 16 0
7 -27 163 0
-62 120 -191 0
18 -41 -65 0
-177 -144 -160 0
108 -42 137 0
-61 -198 34 0
152 -136 18 0
34 -187 -47 0
-24 22 145 0
132 190 75 0
-73 170 43 0
-69 179 -98 0
46 68 190 0
144 -147 -89 0
60 79 47 0
-69 -18 125 0
93 186 47 0
170 -149 -75 0
44 -142 -143 0
-79 90 126 0
-197 -161 193 0
66 141 -197 0
178 -40 145 0
-27 -53 113 0
-50 -32 -51 0
-103 128 -58 0
-181 164 -199 0
-189 76 197 0
-68 -32 -198 0
-42 9 -130 0
170 158 -48 0
-133 -7 134 0
-71 1 -87 0
67 -199 -46 0
174 191 -186 0
81 133 101 0
-32 73 20 0
188 -141 154 0
174 108 72 0
-36 107 -180 0
57 -165 200 0
-195 -70 -11 0
-98 84 177 0
189 -126 34 0
-46 33 -152 0
-9 -152 131 0
128 134 190 0
-155 41 -42 0
63 -108 -9 0
-78 -149 -163 0
-9 78 -59 0
-164 -86 58 0
45 -41 133 0
-86 58 -69 0
71 -23 50 0
167 22 -73 0
-25 -140 20 0
142 103 -29 0
65 -168 178 0
-155 -158 -114 0
82 -98 113 0
-191 172 193 0
182 -165 188 0
67 130 -102 0
-137 -190 127 0
17 -5 -178 0
140 46 -18 0
-157 -84 112 0
124 -171 156 0
100 -60 96 0
-167 66 13 0
-110 91 -163 0
-6 122 159 0
-188 -17 130 0
75 -154 -114 0
36 152 157 0
-128 -22 -14 0
-122 83 97 0
89 -10 -42 0
138 -124 -9 0
-174 34 114 0
170 -112 80 0
90 51 60 0
-129 85 -66 0
121 10 54 0
-164 -51 -60 0
-32 -192 -33 0
4 75 152 0
-72 -140 172 0
-102 -192 48 0
6 159 -121 0
17 -117 -70 0
88 114 107 0
