p cnf 200 852
-12 58 -141 0
74 -67 97 0
157 112 -21 0
139 23 -169 0
168 1 -40 0
-43 -21 -124 0
54 185 -40 0
-116 -188 74 0
-35 -96 127 0
-91 144 6 0
-142 105 54 0
-49 154 -139 0
-147 35 65 0
137 -79 184 0
197 -20 45 0
15 -160 -121 0
125 152 -8 0
187 104 -192 0
-147 -24 -30 0
51 -58 -46 0
167 -38 -58 0
-53 18 -38 0
-150 135 63 0
-9 133 53 0
-137 112 138 0
-155 44 -147 0
-31 -182 -50 0
142 -27 -187 0
-76 71 -45 0
-38 191 -56 0
16 1 -50 0
44 98 15 0
22 -105 -129 0
-20 -65 108 0
-90 128 200 0
45 8 -7 0
-37 -200 16 0
-72 -126 152 0
-195 -162 155 0
-9 -154 44 0
113 44 78 0
-188 -63 95 0
147 17 99 0
15 -190 5 0
173 -15 -47 0
195 -82 -169 0
-2 19 -1 0
-112 -176 -169 0
138 -144 -13 0
146 23 130 0
37 -13 56 0
147 92 23 0
-106 114 182 0
-119 1 80 0
94 -162 109 0
-114 63 -172 0
-112 -39 100 0
44 -97 -200 0
164 109 -129 0
-65 171 -74 0
170 -90 -169 0
168 -191 -50 0
101 -143 59 0
-90 28 -101 0
109 -90 59 0
-12 150 39 0
-59 43 181 0
-187 149 -185 0
186 12 115 0
169 -117 101 0
-66 82 -137 0
46 66 162 0
-8 151 196 0
43 23 -50 0
-123 -72 -144 0
131 143 -121 0
69 148 -45 0
63 -46 -160 0
-186 -67 31 0
186 132 57 0
-199 -96 141 0
131 -142 -122 0
-171 89 101 0
-75 -176 7 0
188 -47 -111 0
-130 55 -68 0
52 42 -91 0
35 15 154 0
61 -30 4 0
29 34 -167 0
123 -42 -132 0
-47 1 64 0
-112 62 -65 0
-146 -150 11 0
30 -25 169 0
-109 65 2 0
-87 28 -85 0
-174 -82 -74 0
-105 -141 193 0
10 -27 3 0
-136 -108 -139 0
-105 53 164 0
-176 198 106 0
59 -87 148 0
-147 -54 157 0
3 -163 -137 0
-194 -12 131 0
-76 81 -109 0
154 25 -191 0
-181 -7 -46 0
-65 -20 -200 0
-95 -97 37 0
122 63 -79 0
-123 -128 73 0
195 19 170 0
-186 -129 -165 0
69 -58 -12 0
21 133 101 0
102 91 146 0
-100 35 -102 0
-80 40 -7 0
166 23 -59 0
117 157 176 0
162 35 -160 0
200 179 42 0
105 57 157 0
-144 -41 100 0
-150 104 127 0
-145 130 73 0
-122 -90 168 0
39 42 189 0
-128 -68 167 0
8 -88 -136 0
71 -104 -41 0
26 123 146 0
27 -141 -102 0
6 -118 102 0
112 -29 198 0
163 -121 -26 0
-146 -22 139 0
39 -84 19 0
5 110 171 0
165 -157 -7 0
19 -133 156 0
-118 -7 -80 0
144 -45 32 0
-149 122 -200 0
-49 -96 51 0
-22 -45 -198 0
-84 88 170 0
-78 -103 51 0
-138 -121 -140 0
-109 -34 -83 0
-60 167 196 0
-130 63 41 0
173 85 152 0
-27 15 120 0
-65 -55 158 0
-110 32 -18 0
178 -142 -104 0
-176 -81 117 0
84 2 117 0
-96 -88 -166 0
59 -42 51 0
-41 126 90 0
173 182 16 0
165 -107 -20 0
191 71 -112 0
-102 -125 -94 0
-80 -140 56 0
154 -87 147 0
179 -187 22 0
-73 30 6 0
76 -3 -97 0
-163 -155 -14 0
185 -36 93 0
-72 -21 49 0
-36 111 -135 0
-47 -1 -193 0
64 -162 33 0
-30 -26 100 0
60 -166 -132 0
-133 197 62 0
44 -112 -131 0
116 120 62 0
-179 31 124 0
175 -79 -115 0
125 -182 -90 0
198 -3 152 0
-79 152 -157 0
146 -143 -161 0
-153 -18 154 0
-135 142 56 0
81 71 -105 0
24 4 136 0
-73 55 174 0
137 -158 -197 0
-25 198 188 0
152 -30 -35 0
-87 -62 149 0
-44 124 7 0
-44 -120 -21 0
-106 124 111 0
-78 -159 -32 0
-178 -76 -164 0
-31 163 -82 0
21 -186 -65 0
118 -196 54 0
-2 -124 -181 0
-128 -86 -154 0
-65 -106 -88 0
56 -148 -64 0
-170 7 184 0
-9 -197 -103 0
-172 -76 119 0
49 28 168 0
-64 143 -173 0
-134 132 -2 0
23 -133 -172 0
-113 114 -77 0
-20 116 174 0
-117 99 169 0
-98 -158 186 0
94 147 22 0
23 83 -44 0
146 -41 -106 0
38 -20 55 0
-15 -73 -132 0
101 153 111 0
159 17 45 0
35 128 -184 0
-112 -89 88 0
69 -143 56 0
156 -184 174 0
106 65 -16 0
-74 -68 4 0
-189 100 -150 0
-36 105 11 0
172 26 109 0
138 -164 -73 0
172 152 87 0
99 199 9 0
-61 84 140 0
32 -33 -80 0
-118 12 -150 0
-135 146 -44 0
138 -28 -49 0
-167 -25 -6 0
-15 -148 138 0
-164 -92 -76 0
-77 164 -175 0
76 -124 -200 0
168 -23 76 0
62 78 118 0
-37 66 -19 0
80 -46 74 0
16 -23 160 0
-88 -1 188 0
-93 43 -127 0
98 -135 124 0
91 -11 -139 0
121 -47 -14 0
-52 103 139 0
147 176 130 0
99 -149 123 0
165 -129 135 0
-141 -173 90 0
153 -195 92 0
-91 55 -149 0
-123 3 76 0
57 185 -73 0
69 -18 149 0
86 138 -159 0
44 165 -181 0
-9 133 -104 0
41 -183 166 0
-11 -117 20 0
91 -102 176 0
137 121 -59 0
16 -145 -11 0
-125 93 -76 0
74 196 126 0
-61 -132 114 0
-89 104 -158 0
117 -27 10 0
97 -48 -153 0
36 -21 15 0
157 197 98 0
-134 126 -133 0
-115 -60 83 0
-92 179 -142 0
49 9 -107 0
-131 -154 47 0
153 138 -81 0
-97 96 111 0
105 -125 -145 0
18 116 -146 0
-104 -155 75 0
83 -103 115 0
125 77 49 0
-57 146 -173 0
-58 -88 155 0
68 149 20 0
-48 -102 107 0
45 66 -91 0
-165 -167 162 0
-99 -114 -160 0
95 -128 -51 0
-9 -82 -57 0
110 198 85 0
101 -25 -19 0
-175 -69 149 0
167 -1 46 0
178 35 -198 0
171 -135 36 0
-182 171 106 0
48 9 -84 0
102 -77 -119 0
35 162 41 0
-109 -50 6 0
179 24 -51 0
-61 68 87 0
-94 4 -39 0
-61 38 -68 0
59 -38 -162 0
-84 121 -124 0
152 64 -123 0
-37 150 139 0
-73 -166 -147 0
46 -23 21 0
27 -83 65 0
-4 -19 -160 0
139 123 -60 0
108 -143 193 0
163 -119 168 0
32 -182 79 0
87 68 -57 0
14 193 -157 0
-62 -98 141 0
193 -99 61 0
31 -135 181 0
117 89 178 0
106 5 75 0
2 -55 66 0
63 -140 -103 0
167 108 -52 0
157 -49 7 0
-199 -8 -124 0
-98 -119 -46 0
-86 -13 -72 0
59 116 18 0
97 61 -32 0
80 59 -149 0
-128 168 -90 0
-164 -184 46 0
-78 42 -160 0
-68 105 -42 0
105 96 121 0
43 12 156 0
-6 -83 -91 0
80 -28 -3 0
58 50 -35 0
-200 -5 187 0
50 40 -17 0
73 -190 43 0
27 116 29 0
167 -153 -183 0
-95 52 194 0
-151 -197 43 0
-143 71 30 0
34 -134 160 0
111 200 196 0
23 172 57 0
-184 -21 110 0
31 103 52 0
159 35 123 0
11 -55 -92 0
103 148 122 0
-84 49 35 0
56 -171 88 0
61 -73 -78 0
192 167 -4 0
185 -156 48 0
-65 -160 -20 0
185 53 -137 0
68 40 -175 0
-14 -6 107 0
-78 -127 61 0
-23 112 -78 0
150 129 191 0
117 -170 -164 0
193 22 -51 0
103 158 -153 0
189 195 116 0
15 93 149 0
-177 193 3 0
-110 -173 -125 0
-62 36 199 0
34 -31 -9 0
13 129 -33 0
-89 90 -93 0
-83 196 55 0
161 158 -50 0
184 -126 -171 0
71 181 32 0
-197 137 -114 0
-2 -4 142 0
-65 32 154 0
-79 -56 -112 0
22 -193 39 0
96 -154 184 0
118 149 129 0
-167 17 44 0
-106 151 -193 0
-26 175 -22 0
-109 -167 -106 0
-103 123 31 0
76 10 183 0
-24 -87 -114 0
117 185 -169 0
165 39 -110 0
-40 47 98 0
18 67 27 0
50 40 -1 0
153 -167 71 0
-93 150 40 0
-70 192 154 0
132 -79 85 0
32 -34 180 0
124 -172 -21 0
58 -90 163 0
130 181 -166 0
-192 194 93 0
163 145 -15 0
-154 200 83 0
-168 -92 -91 0
25 -73 -117 0
-8 199 -185 0
105 55 150 0
171 110 65 0
-36 -38 126 0
81 198 181 0
-15 175 153 0
121 -71 -112 0
-41 10 138 0
31 -58 57 0
124 -112 -20 0
192 -88 -139 0
-193 57 147 0
-109 139 -112 0
-48 66 84 0
161 -75 17 0
113 -17 167 0
193 -49 46 0
-88 59 -131 0
106 98 104 0
88 -178 117 0
-133 154 -39 0
-87 -24 -126 0
83 35 175 0
152 -26 -174 0
-112 -105 -153 0
-67 -50 -189 0
54 -125 -33 0
200 23 45 0
41 -39 -60 0
-155 -41 -166 0
-34 135 170 0
49 140 122 0
-160 -150 28 0
-197 -177 72 0
190 -159 82 0
-145 -158 -82 0
-53 38 -70 0
100 -87 127 0
164 61 44 0
-137 182 -73 0
139 -47 102 0
-146 -181 27 0
-64 -12 -55 0
154 -105 85 0
114 -154 32 0
8 -63 107 0
-199 148 -184 0
-176 -92 -105 0
-165 -143 -115 0
-95 129 -172 0
162 -114 159 0
-174 -95 168 0
-3 -148 -111 0
123 72 194 0
-187 198 15 0
180 -181 128 0
64 -137 150 0
-178 -83 -117 0
-7 -124 54 0
60 -187 142 0
88 117 156 0
67 -191 -80 0
59 61 -121 0
181 -150 23 0
-36 72 -49 0
-61 -154 -122 0
-19 30 -83 0
21 -132 80 0
94 62 53 0
-25 32 44 0
-145 162 104 0
-166 -74 -170 0
-97 -18 125 0
-80 28 -61 0
184 142 13 0
-86 15 151 0
146 -151 -86 0
-100 -75 185 0
68 -154 -143 0
34 -197 150 0
-103 -106 67 0
178 194 -10 0
-29 67 -11 0
-150 -90 -182 0
28 -49 -32 0
184 90 -186 0
197 -49 101 0
-122 95 -168 0
149 46 68 0
84 20 -130 0
-44 -36 181 0
-16 -44 42 0
199 126 -197 0
160 54 50 0
-105 -79 113 0
145 189 166 0
-67 6 -84 0
-61 34 -187 0
-3 48 -121 0
-59 169 -30 0
-192 -74 -92 0
167 -113 67 0
-129 -158 149 0
14 48 -111 0
24 130 -109 0
94 64 194 0
97 -13 41 0
33 -90 18 0
-149 -97 72 0
-156 27 158 0
191 24 193 0
183 168 -20 0
146 -27 156 0
-28 -70 75 0
4 40 -121 0
9 -149 -148 0
40 -34 -116 0
-65 -124 -18 0
-46 21 -35 0
-173 86 -128 0
20 11 -57 0
-50 -167 -145 0
-1 -57 85 0
125 -158 87 0
39 18 187 0
-187 -81 -100 0
-116 22 -93 0
199 67 -9 0
-156 -183 28 0
58 -113 -79 0
-129 -187 192 0
-108 162 119 0
120 157 -28 0
4 106 -168 0
-132 41 116 0
111 -176 -159 0
-125 -129 -73 0
-178 -154 -14 0
188 103 -65 0
118 82 -73 0
-181 -80 -45 0
136 -140 -88 0
-56 139 175 0
31 57 -158 0
-71 91 -111 0
159 -164 -68 0
174 181 -130 0
-186 130 37 0
-21 31 -141 0
125 -152 83 0
-23 -124 -173 0
-68 -56 169 0
-198 -10 -78 0
44 -72 -186 0
185 101 -66 0
32 108 -142 0
19 -101 -125 0
10 -33 -38 0
46 -66 101 0
110 -53 40 0
89 97 -31 0
63 53 30 0
-34 -11 188 0
-27 8 -173 0
139 23 175 0
27 159 109 0
100 40 -78 0
-178 -85 -171 0
-156 10 133 0
-88 -13 166 0
-143 41 113 0
5 -150 128 0
-77 6 5 0
-153 69 -131 0
152 167 195 0
-121 -133 131 0
51 -145 89 0
20 -171 -182 0
-101 57 166 0
-23 -27 81 0
193 37 123 0
-155 -147 142 0
39 132 117 0
-132 -188 -111 0
-180 193 199 0
-159 187 150 0
50 84 85 0
4 167 -169 0
-155 -181 -132 0
-73 -63 -2 0
144 92 77 0
-28 -74 -117 0
-34 31 -109 0
-9 145 -12 0
55 120 128 0
-21 70 18 0
-193 138 54 0
148 94 -153 0
93 136 36 0
97 -68 141 0
-156 11 -148 0
-37 179 -113 0
25 129 147 0
-200 144 -75 0
118 177 -128 0
8 140 -71 0
-117 -22 15 0
128 -146 -167 0
-169 197 -43 0
-195 -93 -49 0
-136 21 -18 0
-86 117 -159 0
-8 -98 -78 0
-86 27 -34 0
43 59 -125 0
147 166 79 0
-92 -166 137 0
196 164 -176 0
89 26 118 0
-140 -63 -18 0
-62 174 153 0
-137 -177 56 0
81 88 -128 0
85 -75 -115 0
66 196 -144 0
-128 -37 59 0
127 89 -3 0
-173 -166 38 0
57 175 163 0
17 -166 -126 0
99 52 119 0
50 49 127 0
-12 48 -153 0
147 26 -191 0
-53 126 60 0
-5 27 66 0
-67 -66 90 0
-35 53 -186 0
100 180 190 0
-30 -15 -193 0
16 -34 -96 0
-145 167 121 0
82 165 179 0
-60 -3 -31 0
25 -170 -56 0
-39 37 120 0
181 101 -156 0
73 169 172 0
-138 -156 109 0
-48 -118 -200 0
63 28 -9 0
71 91 -7 0
-156 24 -47 0
136 70 -76 0
-64 27 139 0
-99 -185 -197 0
-195 26 175 0
60 -58 144 0
141 45 169 0
-144 40 -175 0
24 134 -89 0
16 180 196 0
-200 90 168 0
96 32 36 0
87 -67 38 0
6 186 78 0
80 155 157 0
-90 183 -98 0
-178 26 169 0
-7 73 113 0
-46 -129 -49 0
168 -58 -135 0
2 -56 -127 0
124 -165 43 0
144 -129 170 0
-113 -104 -33 0
-131 159 -47 0
155 -24 149 0
-188 -186 106 0
72 155 -138 0
162 -147 -174 0
-68 -176 53 0
-158 184 -155 0
-74 -140 18 0
89 109 77 0
155 -159 191 0
96 94 -165 0
200 125 29 0
123 115 16 0
-69 176 -78 0
-18 46 52 0
-117 48 102 0
-134 -200 -72 0
29 -87 -97 0
-58 57 72 0
116 -15 -173 0
-70 196 -194 0
-170 179 4 0
-99 -80 61 0
151 48 27 0
197 157 178 0
-97 129 -183 0
-1 122 -164 0
-24 -57 -132 0
-171 79 189 0
-125 78 -196 0
93 83 74 0
-84 -113 -102 0
91 132 -97 0
65 -187 149 0
-25 -137 163 0
39 8 -91 0
145 -9 129 0
67 24 -193 0
-8 -38 -186 0
137 -195 118 0
-59 42 147 0
110 -32 105 0
122 161 -191 0
-114 182 87 0
-185 -27 138 0
-170 -146 9 0
95 -24 52 0
-23 126 -103 0
-9 58 28 0
-100 122 153 0
29 -172 173 0
-174 150 -122 0
-170 -147 16 0
128 199 -78 0
-100 34 150 0
11 82 150 0
-78 149 8 0
82 -129 -131 0
65 -14 -130 0
36 172 85 0
15 -95 141 0
95 171 -81 0
163 -51 -66 0
75 -122 117 0
123 38 -35 0
22 167 120 0
74 -156 61 0
22 65 27 0
-121 175 -55 0
-33 161 -131 0
-21 82 58 0
50 -185 -122 0
147 -51 -173 0
-161 -58 -130 0
-56 144 55 0
169 -17 -24 0
-189 -135 -174 0
-126 119 127 0
167 -2 -99 0
-1 15 -159 0
-2 148 -23 0
39 -181 -37 0
54 -79 -141 0
-188 130 13 0
-172 183 66 0
162 -102 127 0
-44 14 13 0
-72 -111 97 0
154 -117 140 0
149 177 -102 0
-73 113 181 0
-47 74 -200 0
-78 -191 25 0
121 -82 125 0
97 -98 -18 0
138 57 175 0
-141 -23 169 0
-32 -123 -91 0
-174 -126 17 0
197 151 -50 0
-101 -189 -106 0
170 -150 80 0
17 -167 -173 0
97 193 -164 0
73 112 111 0
-164 117 7 0
-137 -90 11 0
98 -86 99 0
128 -103 -21 0
24 -42 -145 0
149 -141 -151 0
171 163 157 0
163 112 -199 0
-43 -20 150 0
197 17 -12 0
161 174 -4 0
-155 -44 -34 0
21 -70 -22 0
30 91 -51 0
-3 -172 -92 0
6 132 180 0
113 89 -6 0
71 -118 83 0
-36 -26 46 0
-123 181 82 0
93 180 -118 0
154 -12 188 0
-134 89 87 0
-59 -131 87 0
29 148 -2 0
-24 190 -114 0
-98 72 23 0
-53 -9 -161 0
-149 191 -194 0
-132 -139 11 0
192 -100 -17 0
-46 -185 104 0
-96 -16 67 0
115 -119 -110 0
