p cnf 50 213
26 -28 44 0
6 21 -39 0
38 -36 -46 0
30 -33 39 0
-42 50 36 0
-15 27 -22 0
21 -28 -43 0
-31 5 6 0
-48 -24 -9 0
22 -43 -8 0
-28 -47 4 0
37 33 -14 0
23 36 24 0
-28 -36 -50 0
-2 39 43 0
-45 49 20 0
10 37 -43 0
-2 6 48 0
-11 -24 -20 0
6 -4 -10 0
18 -29 43 0
14 49 33 0
-44 38 32 0
39 -4 -1 0
49 17 -19 0
-12 9 -25 0
43 -23 5 0
-30 -5 -21 0
27 -19 8 0
-40 30 -45 0
16 28 -38 0
48 22 -15 0
8 -34 33 0
42 10 16 0
10 -49 -42 0
-30 49 -37 0
-37 42 -41 0
21 10 29 0
18 38 4 0
-3 4 -24 0
-6 40 -39 0
-48 -3 29 0
39 31 33 0
-22 46 6 0
29 34 40 0
-27 50 -22 0
-22 5 7 0
43 -39 10 0
-23 20 -42 0
6 -20 -36 0
-43 -45 48 0
43 28 33 0
14 22 50 0
-5 -19 -7 0
34 -3 43 0
25 -10 -11 0
11 47 -29 0
-29 -40 19 0
-16 20 -31 0
-37 -29 -30 0
-27 11 13 0
-42 31 -24 0
-8 19 -6 0
-10 28 6 0
23 -2 27 0
6 -24 -15 0
42 22 -10 0
-45 9 49 0
6 2 -17 0
39 34 28 0
-4 -16 27 0
32 -39 35 0
10 19 -28 0
-12 43 -6 0
35 -33 36 0
-25 24 17 0
-16 -47 -43 0
22 9 -3 0
-50 44 30 0
-9 5 46 0
-3 -13 -21 0
35 -31 17 0
50 4 42 0
-26 48 -29 0
-32 -45 -24 0
47 -28 6 0
19 -21 7 0
39 46 28 0
-47 23 -40 0
-4 5 -43 0
44 -11 -2 0
3 -9 5 0
37 3 39 0
-29 -49 5 0
-42 18 16 0
34 -25 -36 0
-14 -40 19 0
9 -5 -29 0
44 21 -43 0
-20 -11 46 0
24 33 15 0
-32 2 -24 0
-36 9 40 0
-46 -47 -31 0
-5 9 -21 0
-23 -9 -50 0
-9 28 33 0
10 -20 11 0
34 -19 -6 0
-9 41 -20 0
-38 -10 -11 0
37 -3 -2 0
-17 42 -14 0
32 -41 35 0
44 -26 20 0
27 -31 30 0
-46 21 47 0
-49 24 33 0
18 29 -16 0
-40 -27 -16 0
37 47 -21 0
30 32 20 0
-30 16 14 0
39 -42 -44 0
-28 -9 17 0
-26 4 37 0
-25 33 -29 0
44 40 8 0
-22 36 -24 0
-33 -3 -9 0
10 -39 33 0
-26 -40 -48 0
-33 35 -32 0
24 22 44 0
47 45 -41 0
50 38 37 0
-34 -41 47 0
-44 -16 3 0
29 -21 27 0
-50 -40 31 0
-9 -34 14 0
25 -21 -12 0
-44 -50 47 0
31 13 -16 0
-20 -50 19 0
-31 -23 36 0
-8 -37 44 0
23 50 -10 0
23 29 42 0
-35 18 -36 0
-38 -16 -4 0
4 7 -27 0
-9 1 -36 0
-31 42 13 0
-4 50 -6 0
-3 12 -27 0
-26 -32 -12 0
-3 1 -20 0
-19 30 -42 0
33 30 18 0
-30 42 17 0
-19 37 -44 0
26 28 33 0
-9 31 21 0
-29 49 -18 0
1 17 -42 0
30 -20 -11 0
-46 -50 -20 0
24 40 15 0
48 -39 24 0
-35 -43 -14 0
-6 34 -29 0
-8 4 -36 0
11 -21 -34 0
32 6 33 0
27 30 -37 0
47 2 26 0
5 3 -28 0
5 31 3 0
42 -47 27 0
-25 -6 44 0
-23 8 12 0
15 1 -49 0
-35 28 25 0
-18 13 -47 0
40 50 -2 0
-29 39 -44 0
-26 -29 -15 0
9 -33 -19 0
-37 39 50 0
10 43 34 0
-38 48 12 0
23 -42 -43 0
27 -10 20 0
15 20 46 0
27 36 34 0
-42 6 -29 0
13 -4 18 0
-5 -13 49 0
-14 22 -20 0
48 8 -49 0
-14 -26 16 0
35 42 -23 0
30 -7 -47 0
24 -21 -27 0
-2 -17 36 0
10 -13 22 0
36 -42 44 0
47 42 -48 0
-11 9 -47 0
42 -4 -34 0
43 4 -49 0
5 -46 10 0
