p cnf 150 639
17 49 135 0
32 -118 67 0
32 -150 -92 0
53 67 -66 0
-130 93 -85 0
39 27 -114 0
116 71 -138 0
-111 -74 102 0
35 87 65 0
61 131 141 0
58 95 49 0
-29 3 -31 0
134 -146 123 0
-52 24 -108 0
89 19 -100 0
-127 13 -70 0
-97 74 148 0
109 -17 -4 0
76 -42 -82 0
119 -31 -56 0
-76 125 -51 0
-91 -50 88 0
-70 -54 -85 0
93 30 -61 0
105 96 69 0
146 57 90 0
-133 50 -128 0
-14 -79 -59 0
-129 132 -141 0
97 -109 81 0
56 -42 -134 0
125 111 103 0
79 -1 -107 0
77 -39 88 0
60 2 -142 0
139 126 -45 0
49 5 43 0
-110 88 115 0
-110 32 -105 0
-18 149 -28 0
-111 -70 -16 0
-9 93 20 0
127 125 62 0
-136 78 118 0
43 -135 -81 0
-59 -109 105 0
48 -58 -86 0
-128 147 -35 0
45 137 -147 0
19 -6 40 0
134 -23 -68 0
14 -86 97 0
-66 -118 148 0
-132 135 -87 0
-99 -71 84 0
53 -123 54 0
2 -70 -117 0
-39 61 73 0
-12 -31 -33 0
74 4 1 0
14 125 -129 0
26 -78 -99 0
116 12 -127 0
-122 50 117 0
-62 83 90 0
40 -138 77 0
-15 -125 -79 0
148 -24 40 0
26 -95 77 0
-77 -15 -80 0
-86 112 2 0
-70 -81 -97 0
119 -93 95 0
63 75 -5 0
-35 46 7 0
7 -124 111 0
-6 26 -38 0
11 77 -57 0
-36 -77 22 0
117 132 -122 0
115 -39 54 0
127 26 55 0
-66 -148 128 0
-94 -42 -83 0
83 147 -88 0
64 -108 14 0
-74 -61 -1 0
-104 -9 -110 0
-77 -40 93 0
98 149 -50 0
147 13 26 0
140 1 110 0
-70 -89 -2 0
47 100 -89 0
-66 -122 -106 0
91 102 141 0
135 61 71 0
-93 68 126 0
-87 6 62 0
140 -58 77 0
-69 -89 -77 0
74 100 7 0
-149 55 6 0
51 -80 32 0
-83 -127 -116 0
-67 92 -87 0
-57 -50 -21 0
-19 -40 20 0
11 56 -139 0
-141 -7 -9 0
-144 -133 -25 0
-116 -3 -107 0
-130 -77 52 0
9 -139 -55 0
-126 36 -76 0
69 -14 93 0
97 -133 -134 0
-73 -64 82 0
95 -133 -4 0
-95 134 73 0
53 47 -58 0
-35 -98 138 0
-29 126 59 0
91 -13 -89 0
120 97 24 0
76 79 -59 0
-66 23 -5 0
101 71 -27 0
-67 135 92 0
126 87 -55 0
-18 2 -93 0
105 89 99 0
-66 -50 -79 0
7 8 -44 0
34 116 -119 0
35 -96 -150 0
76 -77 29 0
74 -45 -24 0
125 -65 39 0
-74 -122 -143 0
52 111 123 0
-76 129 146 0
61 -136 33 0
-90 89 -1 0
51 12 -134 0
-42 -71 -44 0
-128 -16 75 0
-79 100 54 0
-66 -146 111 0
-22 4 -19 0
19 -136 24 0
139 137 -19 0
144 -135 -106 0
45 60 38 0
150 -85 -43 0
74 93 116 0
-27 -15 -23 0
-72 121 -14 0
75 21 72 0
-71 88 -96 0
60 50 -2 0
130 -117 -101 0
96 -145 -19 0
-91 86 -24 0
-65 40 -20 0
-123 -24 78 0
45 -33 -73 0
82 21 -99 0
141 4 -86 0
-58 -133 -4 0
-5 -120 -102 0
119 -139 110 0
-26 27 -143 0
-134 118 -133 0
-150 31 -109 0
-111 -121 13 0
127 -140 -137 0
-6 -52 143 0
-133 -94 120 0
-87 -74 22 0
150 -143 -88 0
-21 -98 126 0
-131 15 144 0
104 -106 -116 0
98 147 82 0
-52 -74 -48 0
98 89 -119 0
91 119 -6 0
89 17 -38 0
-16 45 -57 0
-49 -12 -52 0
101 14 -71 0
-48 -109 37 0
146 92 -52 0
145 -141 93 0
35 11 111 0
-149 4 -94 0
-62 117 83 0
16 -130 -133 0
-36 -145 -67 0
-14 72 -149 0
-35 -115 22 0
-55 116 134 0
115 -38 -1 0
-143 -44 -55 0
-125 1 144 0
-18 81 44 0
69 -73 64 0
147 -56 -37 0
121 68 -10 0
68 -38 128 0
132 -32 140 0
-117 -27 -78 0
11 -85 -79 0
-34 -127 -92 0
-102 133 -95 0
-72 -130 142 0
-113 67 140 0
138 103 66 0
-72 -119 -24 0
125 -75 -36 0
77 14 105 0
89 -7 -22 0
-41 70 -30 0
14 117 -102 0
-103 42 -105 0
121 47 5 0
-80 18 9 0
-47 -150 92 0
-89 112 -136 0
101 32 -126 0
-118 36 -126 0
146 126 10 0
37 -5 -54 0
-122 -19 -148 0
-52 73 38 0
24 -26 -72 0
-60 -112 -98 0
3 -127 -15 0
75 -45 -119 0
37 -77 126 0
-146 35 33 0
25 108 -75 0
147 93 -42 0
94 110 -79 0
-21 129 -11 0
99 -54 62 0
-149 123 70 0
92 108 72 0
-113 66 -148 0
-27 -101 -150 0
4 55 43 0
-66 -91 52 0
74 35 31 0
147 -132 -50 0
-86 -129 26 0
94 20 -75 0
22 138 -59 0
148 -9 10 0
-66 24 5 0
-85 16 -55 0
-29 54 -111 0
-77 45 -39 0
86 150 -83 0
38 -25 -93 0
-95 147 -45 0
29 -111 101 0
12 -31 -140 0
53 34 -141 0
52 138 -102 0
32 121 149 0
19 80 -140 0
76 105 142 0
127 61 123 0
-66 90 -11 0
102 -119 58 0
52 20 -48 0
-98 100 33 0
97 -46 -21 0
67 -4 99 0
29 -34 3 0
-143 73 -66 0
109 -16 -8 0
49 -95 -61 0
71 -17 -114 0
115 90 -99 0
-67 -131 -62 0
97 -23 37 0
-134 125 -1 0
-11 -16 -124 0
-136 81 99 0
-114 50 -26 0
104 46 -133 0
86 -79 126 0
-74 -51 92 0
59 146 67 0
39 137 131 0
98 -4 76 0
-79 118 -119 0
53 -62 87 0
-40 69 73 0
-12 104 -140 0
58 100 7 0
-139 -38 -59 0
121 129 72 0
-4 -50 -32 0
-130 99 -93 0
-80 133 -30 0
-76 -83 73 0
-127 32 145 0
-32 68 29 0
-115 121 -42 0
-73 80 12 0
-1 143 -46 0
-97 29 -121 0
-35 -133 67 0
-114 31 130 0
-24 -45 139 0
-42 -28 -123 0
-79 -114 -96 0
-101 88 -32 0
7 78 -118 0
32 -42 93 0
-36 -2 -57 0
62 -114 -85 0
111 47 68 0
130 -145 120 0
-17 -146 -132 0
-92 -41 44 0
-9 -47 94 0
-144 82 -81 0
-83 76 129 0
-148 -29 -48 0
145 -103 -115 0
-61 117 8 0
-53 14 -1 0
-91 92 -123 0
-96 31 -101 0
-109 -122 70 0
73 126 14 0
-63 133 110 0
-131 117 -30 0
-6 86 -58 0
105 85 -140 0
121 100 -32 0
-15 3 -63 0
-144 143 -45 0
96 -23 -123 0
145 -114 -67 0
123 -13 110 0
-122 19 45 0
108 -28 -25 0
-47 -67 -8 0
48 14 30 0
-8 132 59 0
112 83 -32 0
-53 68 -84 0
-145 -109 -8 0
56 125 -99 0
-144 16 -99 0
16 108 -75 0
46 -142 71 0
76 72 11 0
133 145 50 0
38 -75 111 0
40 -75 21 0
142 -27 36 0
-99 95 -139 0
121 -62 -138 0
105 129 -140 0
-69 -84 104 0
56 -21 96 0
-145 27 -47 0
66 -56 2 0
117 -129 68 0
44 -60 15 0
-80 99 -85 0
39 143 109 0
-64 -114 105 0
19 -140 139 0
136 15 29 0
69 -71 65 0
35 90 -104 0
17 -145 85 0
70 -93 -34 0
34 19 -105 0
45 -3 -1 0
134 -121 108 0
118 -114 43 0
110 -149 -49 0
-91 -74 -138 0
127 -52 -37 0
19 11 61 0
-25 3 -44 0
117 82 -149 0
-30 -89 18 0
-6 127 -68 0
-35 -59 -118 0
134 -138 21 0
-13 -113 97 0
-148 -94 -82 0
12 -65 -37 0
105 123 64 0
-101 -98 -8 0
46 -141 121 0
33 54 -141 0
30 104 -112 0
134 47 -123 0
16 68 -44 0
-75 -101 -1 0
-104 -130 -135 0
-62 -38 -19 0
-59 49 9 0
-84 -54 77 0
65 90 4 0
80 75 25 0
99 74 25 0
-113 -5 66 0
-33 30 -34 0
-102 -6 96 0
-138 84 108 0
-144 149 -25 0
-129 3 -113 0
123 -85 -61 0
114 -119 38 0
101 114 -58 0
-112 -16 23 0
-96 -143 -83 0
100 90 -18 0
44 -29 -37 0
82 37 104 0
-16 -150 -111 0
-122 -36 7 0
81 67 -119 0
-142 24 -150 0
-24 59 -5 0
-62 -99 37 0
-30 -86 -63 0
-62 -2 -88 0
-128 98 -43 0
-97 24 -8 0
-17 -147 -89 0
-24 -136 -52 0
-84 -50 110 0
5 20 142 0
15 -59 119 0
20 46 -87 0
-100 -25 135 0
17 84 -41 0
62 55 -140 0
-10 -61 -41 0
92 -119 59 0
-76 -27 6 0
-9 123 -33 0
2 -50 -127 0
-50 -61 -6 0
66 -82 -93 0
-83 75 66 0
-19 -67 -24 0
-38 90 81 0
55 49 -3 0
59 -28 20 0
36 -53 108 0
-47 32 -55 0
39 -20 31 0
-147 141 56 0
146 -55 -57 0
-49 -133 -22 0
109 -6 -42 0
40 -144 -145 0
31 -140 -69 0
-133 108 -46 0
130 -144 -3 0
-116 125 -112 0
146 14 46 0
-52 -89 -148 0
-70 -132 -8 0
-121 -8 -38 0
-66 -38 -40 0
142 10 -24 0
-54 -103 49 0
101 -92 -131 0
-28 -70 -14 0
65 88 -71 0
49 45 -107 0
15 130 -19 0
-97 105 -23 0
-100 -96 133 0
90 121 32 0
66 4 -46 0
-107 -3 -97 0
45 -46 93 0
-112 -5 70 0
102 17 137 0
-81 113 -104 0
-112 -4 10 0
60 -13 -57 0
9 -120 71 0
-50 -77 2 0
-87 -8 29 0
-50 -75 59 0
-35 125 74 0
129 130 -92 0
101 -32 -13 0
-39 98 54 0
114 -134 -87 0
108 37 9 0
23 -24 133 0
-43 103 -59 0
-140 -24 73 0
-66 -28 -141 0
-33 -119 -21 0
-27 -50 -29 0
144 36 120 0
68 -111 -60 0
-136 103 138 0
60 120 -74 0
-115 -48 -68 0
52 32 139 0
109 114 132 0
-91 70 -41 0
-116 6 -70 0
139 137 106 0
-63 -95 145 0
63 33 130 0
67 129 74 0
-1 -148 125 0
-105 2 18 0
100 -114 -147 0
127 -138 -50 0
-127 -149 -133 0
137 -47 -5 0
61 63 -134 0
49 -104 34 0
86 39 97 0
-65 83 -106 0
46 38 85 0
-134 -74 -129 0
96 148 85 0
-33 137 -146 0
-57 -116 -25 0
-73 50 129 0
-119 -46 -70 0
-9 147 104 0
-136 87 -60 0
46 39 -4 0
147 140 -13 0
-39 69 -127 0
22 -61 49 0
100 -138 80 0
-38 -147 60 0
11 -113 -49 0
-10 -136 35 0
-32 -57 11 0
95 82 125 0
66 1 -98 0
32 131 35 0
43 148 96 0
50 -41 -31 0
-139 81 130 0
60 82 10 0
22 -101 -24 0
-149 -87 58 0
-123 -129 -77 0
-139 -23 -76 0
-31 -78 -32 0
138 23 125 0
27 -28 -90 0
112 115 -14 0
-1 -78 144 0
-90 98 38 0
-141 49 -46 0
-38 145 -53 0
33 14 -81 0
-25 109 -114 0
-119 80 70 0
148 116 -34 0
43 80 -150 0
5 -102 143 0
-142 -112 -30 0
-35 37 140 0
37 104 -24 0
66 -82 -16 0
-34 43 88 0
5 -105 -4 0
-140 48 113 0
10 -88 -112 0
124 38 -149 0
81 -63 58 0
140 -77 54 0
-117 130 131 0
46 13 -129 0
-103 67 87 0
-66 14 88 0
-94 -21 -150 0
-89 9 -65 0
-78 145 36 0
-82 94 -70 0
-54 -19 -26 0
-73 -150 76 0
-132 -61 -37 0
118 -76 -40 0
-106 -57 1 0
-88 -6 -146 0
137 98 -73 0
44 -130 17 0
145 42 -90 0
130 -73 -98 0
-112 -97 95 0
110 -57 -1 0
-50 -52 82 0
102 -76 4 0
85 104 -146 0
-114 -54 -88 0
50 99 39 0
-26 -101 -32 0
-94 -107 101 0
4 102 -55 0
30 -115 22 0
-147 -100 58 0
150 105 40 0
45 129 -81 0
53 -128 73 0
56 -58 64 0
121 -138 109 0
55 73 -86 0
-26 -110 -93 0
-15 101 28 0
-127 -97 2 0
116 -101 79 0
-97 52 -44 0
104 -46 -37 0
37 23 -117 0
112 -108 118 0
12 126 41 0
-50 106 -96 0
118 -111 -106 0
121 -31 107 0
29 -33 -51 0
