p cnf 200 852
105 -37 10 0
44 -194 11 0
-30 -173 -192 0
150 63 68 0
21 187 8 0
136 86 150 0
45 72 84 0
17 -57 190 0
-86 11 155 0
-185 14 -161 0
-76 154 186 0
140 198 -142 0
91 19 -45 0
-183 -32 81 0
-101 -85 -112 0
196 -100 159 0
59 -8 39 0
118 186 -79 0
86 17 43 0
51 -199 80 0
-194 138 34 0
198 -182 44 0
-123 122 -144 0
-188 -73 -53 0
-95 -166 113 0
105 90 1 0
69 167 -87 0
107 123 -134 0
-127 -192 -166 0
-163 52 -122 0
-122 181 -19 0
-60 41 38 0
29 -79 47 0
-124 -169 -63 0
-105 47 -124 0
-39 33 -187 0
38 110 118 0
177 -14 133 0
-90 153 -132 0
20 -197 -26 0
33 74 185 0
108 -3 139 0
182 -114 -183 0
122 -92 -184 0
-134 -18 12 0
158 -155 168 0
96 48 -60 0
133 -185 108 0
-60 138 84 0
-69 143 98 0
-170 53 38 0
-197 -43 -27 0
146 -56 153 0
49 -29 47 0
68 39 -12 0
-40 -69 -148 0
-64 167 75 0
30 169 31 0
138 -167 196 0
-47 118 -123 0
146 47 -93 0
-69 43 -82 0
92 147 -83 0
-46 -153 -197 0
134 -118 -84 0
47 133 32 0
69 81 140 0
172 58 21 0
-59 -186 -142 0
110 23 -171 0
-105 -168 83 0
-191 107 112 0
9 95 86 0
87 96 151 0
149 -178 -112 0
-189 176 190 0
-188 -179 -49 0
147 -168 -116 0
-119 -56 99 0
189 -111 17 0
-123 -99 -195 0
-161 178 -129 0
-70 182 -130 0
-143 -115 42 0
32 -4 112 0
-162 171 90 0
-43 15 184 0
-40 138 -86 0
-16 164 -186 0
61 132 4 0
8 -197 -52 0
-53 -7 122 0
-129 -176 87 0
-163 -80 -195 0
-165 199 -106 0
-162 -107 -13 0
-161 -184 49 0
126 113 -65 0
165 9 -144 0
150 -14 -22 0
91 133 128 0
14 36 -81 0
-93 182 163 0
-185 -69 79 0
-146 -94 187 0
-116 119 76 0
-81 -70 66 0
58 -185 -14 0
181 24 49 0
169 107 -170 0
-52 143 -169 0
141 -161 200 0
-175 104 109 0
50 133 -125 0
-140 -113 165 0
-25 141 -76 0
-66 86 -82 0
151 31 22 0
71 180 -193 0
149 155 -18 0
1 -173 147 0
163 191 12 0
-200 56 -73 0
-178 104 22 0
-131 -107 -45 0
-144 -158 186 0
-66 -11 15 0
171 164 156 0
-67 27 151 0
-46 33 89 0
180 -67 87 0
29 -5 -96 0
-28 19 -157 0
-59 14 192 0
-52 -65 66 0
197 -15 182 0
-91 -92 70 0
-162 200 -195 0
143 97 78 0
94 -7 122 0
172 64 70 0
144 132 -77 0
126 194 87 0
197 -2 -135 0
34 60 -164 0
22 152 190 0
115 157 3 0
-155 188 -82 0
-192 -175 26 0
19 -188 24 0
-62 -7 -184 0
-104 112 -41 0
119 -131 -133 0
50 71 -163 0
16 -63 -111 0
6 90 -173 0
-20 -16 -150 0
-68 105 -82 0
144 34 110 0
-79 11 -99 0
38 -145 95 0
-95 -41 74 0
-73 -76 117 0
-134 -19 -179 0
-30 -42 -6 0
-26 18 106 0
-31 103 198 0
-62 173 -163 0
174 55 161 0
-170 105 166 0
-3 29 -79 0
-159 -76 -172 0
171 -85 -106 0
86 -130 106 0
-159 -100 31 0
-48 166 26 0
71 170 16 0
25 -59 154 0
-20 127 -148 0
155 -129 52 0
69 -135 88 0
17 -128 188 0
-175 -107 -75 0
-164 -174 -157 0
-73 -111 -179 0
-14 -30 -197 0
52 -64 125 0
43 102 36 0
-87 120 119 0
-57 -90 84 0
154 62 -161 0
-160 -175 -73 0
-161 111 113 0
168 -126 9 0
-26 -13 -42 0
-80 -172 38 0
146 -9 70 0
54 -16 66 0
-156 -111 167 0
25 81 -113 0
-2 5 -193 0
141 6 -37 0
-22 -10 -4 0
94 179 56 0
157 189 74 0
105 48 -171 0
-86 -109 119 0
-72 -182 -172 0
132 193 -187 0
-77 -87 -42 0
-82 -193 -13 0
53 -161 -185 0
-40 43 -120 0
149 -121 -115 0
129 -114 -39 0
49 172 -180 0
-63 -149 182 0
-54 -125 -47 0
171 19 -55 0
-102 -12 122 0
88 -13 100 0
99 -70 153 0
132 135 -161 0
182 14 73 0
23 109 29 0
-160 51 -195 0
-84 -127 -82 0
95 -139 -42 0
-44 58 127 0
61 146 56 0
158 163 -95 0
-122 -135 -119 0
-8 -63 174 0
55 -51 -109 0
-164 186 -19 0
1 -155 100 0
26 109 -44 0
-88 115 138 0
-144 91 -2 0
-17 10 -81 0
-84 -38 129 0
-182 21 84 0
31 190 6 0
166 -133 -139 0
-63 134 199 0
-92 -172 -198 0
196 156 54 0
166 -160 64 0
-63 194 3 0
106 163 91 0
60 18 -146 0
-75 -160 158 0
75 -176 131 0
-48 -69 191 0
52 85 112 0
71 -110 -47 0
86 -193 72 0
155 71 -157 0
-55 -71 16 0
-74 135 5 0
117 95 55 0
-165 117 -70 0
-119 129 7 0
112 168 -92 0
-40 -190 45 0
38 18 -81 0
-26 -67 -143 0
-94 -146 107 0
-146 -184 -34 0
-86 -99 -152 0
-189 -196 -81 0
-33 -13 40 0
35 -196 130 0
85 -98 111 0
140 186 69 0
-119 158 -98 0
188 183 153 0
-96 37 7 0
130 57 194 0
-135 70 80 0
-61 -94 -169 0
152 43 -169 0
153 144 39 0
73 82 -8 0
-70 -68 -148 0
-89 151 -174 0
124 70 -63 0
16 44 5 0
53 -44 58 0
-68 -23 94 0
143 189 -108 0
-30 -65 78 0
-120 18 -63 0
-134 72 -93 0
41 -72 -129 0
-142 -131 -160 0
167 -183 65 0
-186 134 -179 0
-37 -55 -192 0
-101 117 57 0
-7 -135 -107 0
-75 147 149 0
188 175 -98 0
-195 -86 -166 0
-113 -109 -153 0
-171 -31 -62 0
171 15 134 0
38 199 130 0
39 -23 34 0
83 -119 14 0
186 -94 39 0
-133 30 -142 0
167 -94 -176 0
-133 -87 24 0
36 -198 147 0
-117 58 -115 0
33 47 92 0
-72 164 -65 0
68 76 191 0
7 -126 -6 0
-113 185 35 0
-137 -195 -3 0
75 -81 159 0
118 -162 -135 0
21 76 147 0
-193 181 -68 0
-152 -72 168 0
172 11 154 0
67 -96 -159 0
130 7 126 0
-168 56 -71 0
-170 -143 17 0
-58 -151 7 0
-116 9 -33 0
10 174 30 0
134 -4 -156 0
77 131 -142 0
90 -109 179 0
-167 87 -105 0
-106 156 -14 0
-51 140 127 0
147 97 40 0
115 193 -157 0
113 -128 153 0
10 194 84 0
-2 38 144 0
196 179 -131 0
66 101 -17 0
-144 -2 66 0
146 93 190 0
-101 -125 191 0
-67 20 136 0
-175 -198 136 0
28 100 43 0
-126 -200 -48 0
-66 175 -49 0
67 47 -22 0
12 79 -173 0
-186 194 120 0
-26 89 -14 0
134 -83 51 0
34 -90 -200 0
-184 24 -110 0
43 -167 -163 0
107 61 85 0
194 -51 -136 0
49 -2 -192 0
8 -61 -7 0
-123 35 -7 0
89 8 90 0
-67 -146 -123 0
-17 13 109 0
-110 60 -113 0
100 -198 197 0
16 -178 35 0
89 138 135 0
143 71 -32 0
148 -142 167 0
143 -16 -124 0
5 -178 -192 0
-60 84 -100 0
-161 166 -163 0
-155 43 -49 0
167 109 -118 0
120 54 -19 0
-25 27 -124 0
-35 145 185 0
-122 -63 40 0
-124 17 121 0
-69 130 50 0
-103 172 -20 0
-150 -191 48 0
-120 91 47 0
-90 -97 92 0
-81 200 32 0
-178 72 25 0
-91 133 193 0
84 178 -137 0
-19 -18 -29 0
47 198 129 0
44 93 13 0
109 172 -33 0
-195 74 138 0
150 78 191 0
61 14 97 0
-199 39 -193 0
-148 35 56 0
96 -3 47 0
143 -198 -160 0
50 -8 -86 0
-80 -5 151 0
-30 155 -137 0
-197 110 -72 0
-52 -94 42 0
-26 -42 -32 0
-2 -31 26 0
87 -114 -61 0
153 -60 48 0
156 -45 -41 0
-110 -192 -121 0
58 31 4 0
-197 -136 9 0
81 64 -169 0
127 -86 -57 0
189 153 -65 0
37 -21 -104 0
-87 -189 3 0
20 -123 133 0
89 121 92 0
176 132 -49 0
-35 143 184 0
193 -200 -143 0
-3 -5 124 0
144 44 -195 0
-86 196 -59 0
8 -140 -144 0
-159 70 -171 0
120 -75 149 0
-79 -30 -2 0
121 -187 -198 0
-112 168 152 0
-6 -144 -115 0
-53 94 69 0
33 -155 -55 0
-10 -126 115 0
-9 -172 160 0
-76 28 109 0
-149 32 85 0
-49 8 92 0
93 7 -175 0
53 131 -181 0
-5 -144 28 0
37 -140 -194 0
162 171 4 0
-43 -71 82 0
-116 41 61 0
43 -170 199 0
103 -113 61 0
-50 134 197 0
76 158 168 0
199 18 57 0
95 -119 153 0
-87 168 -94 0
-185 -83 179 0
-82 80 -121 0
49 23 147 0
172 1 62 0
-132 -3 -92 0
26 -53 35 0
179 8 -13 0
-79 124 143 0
-57 -119 -67 0
-35 -56 38 0
-180 -25 143 0
188 -101 -51 0
37 -68 113 0
38 66 9 0
150 -25 -184 0
24 -68 -113 0
82 73 14 0
140 187 16 0
-177 143 -142 0
-6 174 16 0
119 -15 -8 0
50 138 169 0
-109 -23 22 0
11 -192 104 0
173 -102 25 0
-14 -123 -102 0
68 -117 58 0
174 135 -67 0
-183 179 -137 0
-112 -197 -9 0
18 130 75 0
-34 7 -193 0
104 -190 24 0
59 174 63 0
-135 184 -72 0
-140 -59 -75 0
54 -176 8 0
-86 -177 175 0
40 144 -69 0
96 -70 -59 0
-62 -96 46 0
-45 164 -51 0
-115 48 132 0
-74 66 -47 0
196 24 -167 0
54 71 -36 0
-149 117 -145 0
-155 158 172 0
-36 8 -85 0
-176 -137 72 0
-42 180 -122 0
-106 -60 -185 0
-20 164 -134 0
92 147 -84 0
-171 -133 -123 0
-104 -10 -88 0
-145 127 -36 0
-110 -52 -89 0
156 -56 38 0
-90 100 83 0
-128 -137 -36 0
-109 -130 140 0
91 89 -162 0
170 -195 143 0
120 39 196 0
32 -85 64 0
121 -12 -47 0
-132 149 -190 0
87 141 43 0
-75 73 17 0
152 -170 -199 0
190 -17 -182 0
14 184 66 0
-142 -115 38 0
-85 -160 -120 0
13 50 96 0
154 155 129 0
-134 181 77 0
-8 96 -183 0
46 -93 -180 0
68 172 36 0
107 100 -144 0
71 117 -69 0
107 -146 -33 0
-71 16 54 0
44 -15 74 0
121 29 -13 0
82 59 -157 0
-67 9 -188 0
101 57 -19 0
6 79 93 0
23 -63 117 0
-170 61 10 0
-16 28 -40 0
5 113 155 0
-134 46 67 0
175 -110 -137 0
-185 16 -69 0
-4 -169 -126 0
174 -4 164 0
-65 197 121 0
-84 19 56 0
58 -33 -24 0
58 -44 -73 0
-38 164 -33 0
-59 -199 152 0
76 -145 130 0
-2 -38 137 0
-67 112 135 0
-53 -176 -107 0
132 -109 -176 0
-107 17 114 0
-120 198 90 0
-116 177 -43 0
-81 -28 193 0
2 27 7 0
-108 -95 -136 0
151 -186 71 0
-143 166 185 0
149 116 109 0
143 -14 -120 0
16 -105 72 0
40 -72 -102 0
-183 98 130 0
162 149 -78 0
190 75 132 0
-43 111 172 0
177 -180 182 0
-47 60 121 0
8 95 22 0
-71 -87 156 0
66 -145 155 0
33 -77 -104 0
88 89 -155 0
-64 -18 -134 0
-192 -190 69 0
-50 93 -25 0
53 -63 -159 0
173 135 -107 0
-165 5 71 0
-54 151 -11 0
-189 -16 130 0
188 152 107 0
-145 -73 19 0
-198 -76 -177 0
-184 29 78 0
28 -195 -94 0
192 103 190 0
-112 101 22 0
-127 -4 -43 0
165 -198 -16 0
100 19 -26 0
-175 -184 -187 0
66 -171 -107 0
21 -160 -165 0
24 -186 -36 0
90 -92 -183 0
118 -45 -104 0
-19 171 37 0
117 43 -24 0
168 109 16 0
18 80 -9 0
99 161 -52 0
-142 -98 65 0
65 -64 -154 0
-164 -10 -190 0
100 116 -138 0
63 -52 11 0
-92 124 -87 0
-185 21 -150 0
14 -32 172 0
-102 44 105 0
146 -126 -84 0
90 -76 116 0
-69 -24 87 0
95 147 -13 0
-16 105 -47 0
61 -148 176 0
-48 200 190 0
-83 -18 179 0
11 -5 189 0
-162 7 98 0
-104 -118 -110 0
119 -197 19 0
17 9 182 0
-65 128 161 0
183 -192 99 0
-113 188 -163 0
-139 26 84 0
-76 -51 -158 0
154 28 90 0
-27 -75 -184 0
191 147 85 0
-64 -5 -188 0
-56 -127 -30 0
50 38 120 0
106 129 -93 0
186 -189 -79 0
103 109 -171 0
146 4 42 0
-193 189 -72 0
-118 20 189 0
-67 113 168 0
-187 66 -135 0
-157 174 172 0
146 17 136 0
29 39 -78 0
91 156 172 0
-144 -171 -178 0
-157 -22 -83 0
-147 101 -140 0
-151 159 -132 0
-5 -126 28 0
153 -114 88 0
-178 -193 -51 0
-145 184 189 0
-192 164 -55 0
-133 -49 175 0
144 -76 -156 0
124 120 -148 0
148 73 144 0
98 -68 -87 0
-159 79 102 0
180 -131 184 0
-91 -137 37 0
-168 120 13 0
134 54 -47 0
150 193 73 0
-87 -62 163 0
148 143 -176 0
-67 -114 147 0
117 -183 50 0
176 70 -52 0
11 -6 -192 0
-154 -106 84 0
185 -17 175 0
111 51 -90 0
-119 -159 27 0
21 111 -78 0
155 140 186 0
-154 -148 -87 0
-42 71 -35 0
-137 -190 -18 0
15 193 -8 0
124 23 -73 0
12 188 -63 0
-71 57 -59 0
140 134 -88 0
33 -98 -199 0
53 -5 174 0
27 -109 -93 0
89 -20 -128 0
-165 -10 193 0
125 -168 -120 0
117 -65 153 0
31 133 -32 0
-124 63 -25 0
151 -187 114 0
135 -57 45 0
-89 -191 112 0
-108 -55 76 0
119 -183 34 0
-194 134 -85 0
142 128 10 0
15 41 -5 0
45 63 -23 0
-132 -21 -3 0
182 16 -52 0
-11 186 -119 0
180 58 -75 0
-81 152 104 0
-129 -174 50 0
-82 41 -103 0
98 95 105 0
146 54 -8 0
-12 -189 8 0
58 158 -36 0
179 69 -15 0
-134 -49 122 0
-142 -69 44 0
161 127 93 0
133 -180 -65 0
-100 -85 67 0
97 132 187 0
196 156 -87 0
-148 93 39 0
-90 -63 -36 0
104 -112 -65 0
-19 149 175 0
-182 191 34 0
-81 -1 82 0
-148 -195 -27 0
125 105 -161 0
-52 -36 -54 0
92 -112 42 0
-23 -146 -22 0
2 191 -103 0
-155 -111 -200 0
167 184 16 0
-44 108 -95 0
-165 113 142 0
-191 19 165 0
-184 103 60 0
85 -200 -173 0
117 14 153 0
39 -125 62 0
182 -122 167 0
-29 -63 25 0
-90 183 -142 0
-40 -116 131 0
78 92 59 0
143 183 15 0
48 93 -138 0
25 -79 182 0
25 -13 150 0
130 86 183 0
-28 47 69 0
83 -68 -38 0
-162 -170 109 0
-66 -179 174 0
48 -177 -78 0
-18 -23 35 0
-184 -56 -140 0
-117 -115 125 0
-32 58 -81 0
-67 -64 -63 0
-7 167 -49 0
-104 -58 1 0
-27 -153 -129 0
-104 -62 26 0
75 -106 -173 0
64 75 -152 0
34 169 126 0
9 -68 144 0
-184 49 -198 0
-8 64 82 0
-20 99 116 0
145 31 -38 0
5 55 170 0
64 -131 143 0
165 192 -178 0
50 31 147 0
114 -91 96 0
-168 54 -191 0
181 -159 -130 0
-77 -102 -137 0
-62 -158 -26 0
-36 -30 -199 0
81 156 148 0
-53 -174 -10 0
95 190 -67 0
-96 -158 171 0
-70 -189 88 0
145 -125 -131 0
-144 -191 -26 0
-195 3 -40 0
-21 -137 22 0
166 -35 -146 0
53 17 -135 0
-172 -7 93 0
-127 -123 -64 0
129 115 -26 0
19 -151 -135 0
47 -45 -8 0
-73 10 -139 0
182 125 -121 0
-175 -82 17 0
-101 -94 27 0
122 154 -196 0
-59 182 73 0
191 -74 114 0
-100 176 -38 0
-151 85 176 0
-169 -126 -124 0
-196 -15 130 0
-134 163 143 0
83 141 -171 0
104 -168 133 0
-144 -30 38 0
172 -20 -1 0
85 -106 47 0
33 -59 -71 0
-43 99 -66 0
83 -14 63 0
116 -164 125 0
157 188 127 0
-166 178 111 0
83 156 172 0
98 79 76 0
