p cnf 100 426
28 92 60 0
90 -68 64 0
-57 -11 -28 0
73 -32 27 0
-1 -81 -43 0
-56 12 -47 0
-12 -84 43 0
63 -73 24 0
49 -38 32 0
18 66 31 0
21 -70 77 0
1 -44 32 0
-33 9 -91 0
-80 90 -60 0
-43 69 82 0
48 -16 5 0
63 28 2 0
18 66 14 0
-15 -68 -97 0
-3 74 53 0
-34 -89 -97 0
89 -1 -73 0
36 79 66 0
45 -15 91 0
-96 59 18 0
-26 -3 -83 0
16 -14 97 0
93 -99 -5 0
-98 67 9 0
-84 96 46 0
52 37 98 0
-30 -92 2 0
-45 -25 -66 0
24 70 -17 0
-6 34 -9 0
-11 79 5 0
1 35 -98 0
-64 89 -76 0
-21 35 -48 0
10 -8 80 0
82 -19 97 0
94 -95 -72 0
74 53 -27 0
39 19 -24 0
83 87 -28 0
80 7 5 0
89 49 -28 0
58 -89 84 0
-5 77 -43 0
54 93 18 0
70 75 -4 0
4 8 -13 0
-73 2 4 0
25 97 100 0
-14 -27 -70 0
61 10 84 0
-33 -41 -91 0
64 -15 -73 0
61 1 59 0
19 -29 -98 0
17 -24 47 0
-44 24 28 0
-94 86 -3 0
-61 24 49 0
83 81 46 0
53 -11 -84 0
4 87 -18 0
75 70 45 0
74 -86 -15 0
-12 22 -56 0
-37 -94 78 0
-72 55 66 0
-8 2 65 0
66 -96 -30 0
73 15 -74 0
17 11 -56 0
-93 -98 -68 0
-26 -51 -78 0
-42 -30 36 0
6 -65 -21 0
41 -36 56 0
-9 22 -26 0
-19 2 46 0
28 -1 8 0
-38 96 -92 0
-79 -1 -67 0
12 -16 33 0
-12 -50 -73 0
18 88 -64 0
-87 69 -99 0
-6 -50 2 0
11 71 55 0
-7 -3 -77 0
88 -29 -32 0
-32 -58 11 0
-12 85 78 0
-65 -19 98 0
3 -25 82 0
-47 27 42 0
-58 -42 49 0
-75 91 35 0
-7 13 -8 0
-3 -18 -91 0
20 18 -84 0
-37 1 20 0
45 -65 -9 0
-60 30 46 0
29 45 59 0
-13 -99 72 0
71 15 88 0
-81 42 -45 0
51 -15 5 0
34 55 -53 0
67 19 -59 0
-23 -26 -17 0
9 -45 12 0
69 -92 48 0
-42 -29 -99 0
40 -49 -93 0
-19 -57 54 0
4 14 80 0
-93 -96 81 0
20 -34 31 0
53 69 22 0
-87 17 59 0
-1 -66 51 0
-45 -90 52 0
-10 80 -57 0
66 35 80 0
-21 75 8 0
-14 66 39 0
19 17 31 0
7 -40 93 0
20 -15 -12 0
78 95 -97 0
-23 3 52 0
12 -99 16 0
26 70 71 0
86 55 -30 0
-37 -65 23 0
-54 69 -3 0
-3 -45 13 0
21 -48 40 0
-93 24 32 0
-40 79 -96 0
31 -64 -19 0
50 7 -8 0
-14 -77 -58 0
-7 11 12 0
39 -61 15 0
-13 -76 60 0
-96 -14 81 0
-46 -88 92 0
-65 34 -13 0
-60 -68 -43 0
10 27 57 0
-16 -3 -61 0
57 67 96 0
98 8 92 0
-55 4 -71 0
-20 -17 -26 0
50 33 62 0
44 30 -6 0
-1 -24 -37 0
-47 -46 60 0
-84 33 -86 0
28 -51 24 0
-5 50 78 0
-59 34 -51 0
88 -46 9 0
-47 -90 96 0
-8 -95 -15 0
50 10 1 0
-6 -84 67 0
-28 -90 -96 0
-74 18 37 0
-4 -2 -39 0
-10 2 41 0
-10 -49 -61 0
50 -90 38 0
79 43 30 0
3 16 98 0
-20 -63 65 0
16 41 -61 0
-15 -18 -70 0
43 13 -18 0
65 13 -44 0
-82 -6 98 0
94 -50 3 0
95 -48 99 0
5 46 9 0
65 -60 -16 0
-62 69 -83 0
28 -13 -63 0
100 24 57 0
-42 91 59 0
-23 43 -34 0
-19 -58 -24 0
58 54 -55 0
49 -88 -27 0
91 -27 -44 0
61 -54 89 0
-68 56 93 0
-86 -89 -4 0
51 76 87 0
48 100 31 0
68 78 99 0
-11 42 77 0
-2 -41 25 0
-8 -95 61 0
44 -45 -33 0
4 -31 68 0
52 96 17 0
23 83 19 0
-60 48 84 0
63 -14 55 0
70 -48 15 0
71 -30 -5 0
-75 -2 27 0
-24 -96 -53 0
2 13 35 0
-10 -8 55 0
-98 3 -28 0
-58 -100 -6 0
38 75 26 0
-33 -36 -49 0
57 21 -73 0
72 -1 -70 0
97 -42 -34 0
79 -71 -42 0
-29 -17 60 0
-70 12 21 0
45 -84 -7 0
-8 17 -56 0
-22 59 71 0
-63 -34 80 0
-93 1 -65 0
-54 -96 -64 0
-3 -22 -6 0
73 22 77 0
-48 100 39 0
-34 -70 74 0
21 45 -25 0
32 -46 -9 0
43 -45 8 0
-44 -37 43 0
-52 -75 65 0
-27 80 -25 0
-38 -32 51 0
-69 -4 -45 0
-30 -16 -17 0
12 -21 -75 0
-51 41 79 0
19 32 64 0
76 -48 36 0
-77 -100 -35 0
-44 80 13 0
90 30 13 0
55 -36 -61 0
52 -33 -50 0
80 -55 16 0
-74 -76 -21 0
41 18 35 0
-46 89 30 0
-35 27 -93 0
-39 -31 86 0
76 60 -82 0
48 89 -95 0
-65 70 -31 0
-42 -90 -70 0
-1 39 99 0
82 49 74 0
22 76 -72 0
8 -22 44 0
-56 36 -8 0
-46 -95 -68 0
100 -42 90 0
-23 3 95 0
75 -100 -22 0
82 -41 95 0
72 21 -23 0
-69 -24 -46 0
22 -97 39 0
-98 33 -24 0
21 -32 36 0
-2 78 -90 0
57 6 -18 0
44 7 75 0
37 83 6 0
-95 98 -11 0
69 80 23 0
12 76 29 0
3 -68 19 0
-36 -52 -15 0
-8 61 56 0
68 -92 46 0
23 26 35 0
19 -29 -87 0
-53 -15 2 0
92 -12 -56 0
-50 45 -36 0
26 -59 23 0
-47 -62 54 0
-89 27 -33 0
36 -55 9 0
-71 -57 3 0
79 -73 25 0
22 37 -72 0
10 99 64 0
-43 -26 65 0
98 2 -22 0
-96 29 -49 0
6 36 89 0
-91 -35 9 0
-44 -30 65 0
95 -35 23 0
100 -76 -78 0
29 -62 69 0
63 83 82 0
65 67 34 0
-49 -11 -70 0
-45 -54 33 0
50 -97 -30 0
9 -48 -85 0
-67 -96 78 0
-61 90 -22 0
-40 -43 -6 0
-50 3 -38 0
-55 5 44 0
-35 55 76 0
83 -57 86 0
16 71 18 0
61 74 83 0
-66 58 -83 0
-43 87 77 0
27 -74 54 0
-66 -89 80 0
-52 -4 -95 0
3 86 -82 0
89 -59 8 0
-90 98 -10 0
4 -53 -51 0
-52 -98 -21 0
-2 -61 25 0
-66 -79 -11 0
-21 63 16 0
99 27 -30 0
-1 69 55 0
52 76 -38 0
69 -88 -86 0
-31 -42 -39 0
-15 -37 46 0
4 -49 -77 0
57 -25 -1 0
-35 -30 72 0
32 -7 -90 0
-95 10 60 0
1 -50 -82 0
-87 -15 -44 0
98 -7 -14 0
75 -93 -85 0
-43 -1 26 0
7 77 20 0
-7 -27 -4 0
9 -59 -21 0
-54 -71 -23 0
-68 -42 97 0
-19 -67 -65 0
-24 83 60 0
-1 -55 -76 0
-50 15 22 0
72 5 -68 0
-59 8 -82 0
25 87 -34 0
49 81 -84 0
88 63 -1 0
85 -19 39 0
77 -3 -75 0
59 -47 32 0
58 -52 -91 0
-58 1 17 0
18 98 89 0
-98 55 -33 0
-57 -48 -100 0
-52 -90 -35 0
-16 -46 92 0
48 36 92 0
17 30 55 0
100 -80 68 0
-75 -40 -73 0
-86 -23 18 0
68 50 -24 0
2 -50 -54 0
73 -75 53 0
-76 -77 -85 0
94 -71 -32 0
52 72 -66 0
48 100 56 0
-23 -7 -67 0
32 -13 42 0
98 77 11 0
1 -9 -38 0
-60 -52 -19 0
-40 -95 -84 0
94 73 10 0
74 -64 -42 0
-17 5 76 0
86 -50 -39 0
18 -38 -2 0
8 -67 24 0
-63 55 -78 0
72 -80 -52 0
-100 -70 5 0
17 1 -11 0
1 58 -79 0
74 -43 -62 0
-83 99 38 0
40 63 33 0
10 -85 -25 0
13 2 -7 0
10 64 -45 0
-98 85 23 0
-80 96 75 0
62 25 -27 0
-38 40 -36 0
100 35 -64 0
