p cnf 150 639
-117 45 -88 0
30 40 111 0
-110 -55 54 0
27 -120 -100 0
45 31 43 0
54 -55 78 0
-46 95 102 0
-44 -84 9 0
77 20 128 0
-51 -116 143 0
107 75 131 0
-128 -112 107 0
128 -125 -2 0
-14 -102 119 0
72 -87 18 0
-36 85 -106 0
-109 68 97 0
-140 13 77 0
-100 -57 130 0
96 9 76 0
-1 42 8 0
-29 48 -58 0
-73 -68 98 0
127 -97 -63 0
76 -131 -119 0
-81 -25 34 0
144 -62 -140 0
-59 85 -129 0
18 111 -89 0
-87 37 -35 0
-21 34 -2 0
128 -78 148 0
74 -109 -62 0
-25 14 -81 0
-83 100 -27 0
-69 16 8 0
-134 -54 68 0
70 44 23 0
-131 76 -23 0
-105 -83 -70 0
45 84 85 0
31 13 147 0
-120 -1 114 0
-8 103 24 0
55 -94 -26 0
-143 53 -98 0
-93 94 -138 0
-105 150 -34 0
-29 -96 100 0
-8 -112 6 0
32 5 -3 0
36 -7 -67 0
-150 29 -86 0
67 -50 144 0
-53 -123 -92 0
-22 -63 -139 0
-1 -29 -144 0
23 31 60 0
41 54 52 0
-114 -4 120 0
129 -125 107 0
11 -132 18 0
13 130 37 0
76 62 -82 0
-144 -26 107 0
-9 75 -37 0
-5 4 48 0
-25 -128 -12 0
58 -25 62 0
-9 -58 16 0
44 86 -24 0
134 30 60 0
-21 -86 40 0
-108 142 95 0
-99 116 3 0
36 28 -34 0
-97 -111 -73 0
-55 100 -40 0
-63 86 12 0
-66 -97 -139 0
-149 -84 7 0
-135 -74 131 0
-70 150 72 0
120 38 -15 0
-33 28 -115 0
1 -68 99 0
79 -108 -93 0
-82 -41 -35 0
101 77 -98 0
59 7 -65 0
76 -40 20 0
112 128 88 0
-125 -124 -34 0
93 65 -39 0
-1 53 135 0
74 -122 -36 0
38 12 114 0
-56 123 13 0
-42 -61 143 0
-117 54 -58 0
-136 88 49 0
-140 46 107 0
-72 -95 26 0
-130 -145 149 0
32 26 -70 0
144 -61 74 0
49 -52 82 0
-73 -145 117 0
-4 -70 -13 0
56 -48 -75 0
-9 -7 21 0
29 97 50 0
133 128 44 0
147 8 -125 0
-43 -94 -127 0
20 13 -38 0
-46 121 -42 0
46 -10 -113 0
92 37 -139 0
-119 127 130 0
15 28 137 0
6 37 -120 0
33 57 25 0
24 7 9 0
-138 90 -121 0
122 -61 -141 0
-24 140 69 0
-100 59 -13 0
20 138 -41 0
35 -85 -29 0
9 53 23 0
7 93 10 0
-45 90 41 0
-73 -101 -87 0
-127 97 57 0
95 91 14 0
73 -41 53 0
-109 116 99 0
124 -100 -19 0
-72 -92 86 0
-44 12 -93 0
-38 -94 74 0
-59 -124 -22 0
102 -11 -49 0
125 57 18 0
-88 61 145 0
82 72 47 0
-67 -55 -120 0
-107 -141 7 0
-95 -91 129 0
83 -68 144 0
145 -124 -67 0
149 -15 -78 0
84 -104 -132 0
-136 -84 16 0
-111 124 -47 0
28 -86 -136 0
134 -67 -96 0
57 41 -73 0
145 40 -119 0
-6 -3 -38 0
99 -49 -82 0
90 -116 15 0
63 -97 20 0
-80 105 -71 0
41 145 74 0
84 -136 4 0
135 69 11 0
-49 9 -64 0
26 136 68 0
120 -122 60 0
107 -147 37 0
106 -13 -22 0
114 -121 75 0
17 -132 -56 0
-102 98 19 0
87 63 -117 0
-26 2 39 0
-102 -144 56 0
-25 -10 -32 0
-140 -18 -97 0
-29 2 -98 0
-123 17 -11 0
-21 -109 -59 0
93 -29 -146 0
85 130 99 0
-125 6 40 0
100 81 84 0
-41 -22 -133 0
68 135 13 0
85 -1 -44 0
36 108 56 0
-119 83 74 0
50 40 -1 0
34 -4 61 0
-119 72 -79 0
126 142 3 0
77 -111 59 0
101 115 -112 0
-112 -80 18 0
127 -32 107 0
-66 -83 -129 0
-89 120 -119 0
116 29 -89 0
-149 -55 -45 0
-38 45 120 0
137 75 -33 0
75 110 79 0
-8 40 26 0
-145 76 -92 0
-45 56 -35 0
63 -56 90 0
-34 -135 -107 0
-78 -39 -2 0
141 -1 29 0
-102 -19 20 0
-3 26 80 0
-136 28 98 0
70 42 141 0
-104 87 10 0
115 94 -6 0
36 -31 -95 0
-24 -16 8 0
4 10 -36 0
-97 86 -102 0
-49 -142 3 0
-51 43 101 0
26 -23 80 0
-59 129 122 0
48 111 -75 0
66 98 -29 0
130 -17 106 0
-139 81 80 0
-122 -67 64 0
-87 35 -131 0
-79 -86 -118 0
46 -48 74 0
72 39 -32 0
-103 -31 29 0
83 -72 -96 0
89 -113 -140 0
111 46 56 0
-3 -9 -33 0
86 47 -95 0
125 56 28 0
136 -126 -9 0
30 17 -114 0
94 -143 -51 0
46 32 87 0
-57 142 127 0
-18 -60 83 0
-132 -150 -22 0
72 138 -45 0
55 -109 -72 0
111 -22 40 0
-141 -108 -137 0
40 121 124 0
-113 36 -13 0
91 -10 -99 0
-33 -140 -81 0
145 71 -75 0
53 26 -22 0
-139 82 -80 0
33 -26 -133 0
3 63 105 0
-32 141 -84 0
110 -91 103 0
-113 62 -132 0
-131 75 -83 0
-8 -2 -119 0
-116 126 -121 0
-108 89 26 0
-45 -94 57 0
111 -51 11 0
-130 98 104 0
-87 6 117 0
99 -148 -92 0
110 -21 13 0
-54 35 99 0
28 67 -17 0
67 51 -146 0
82 150 100 0
40 2 132 0
-142 -32 -56 0
123 -21 -145 0
144 -28 137 0
-86 -1 25 0
-93 117 108 0
-134 111 113 0
-106 34 79 0
-133 -58 -44 0
-104 112 -87 0
52 -20 -53 0
75 146 -63 0
-126 110 -47 0
126 -109 -95 0
-83 112 109 0
29 -117 44 0
-50 -106 -45 0
50 74 32 0
-73 103 -4 0
130 -113 84 0
-81 78 -65 0
-126 56 143 0
-85 84 131 0
11 90 15 0
80 -98 96 0
-108 145 110 0
-69 76 123 0
-43 -87 -62 0
64 68 23 0
-35 115 -108 0
-11 -108 -128 0
60 -55 97 0
-80 -25 -9 0
65 52 -150 0
-29 134 48 0
71 -10 63 0
-30 -125 -51 0
-14 55 21 0
-112 -93 25 0
-131 -128 120 0
129 -126 92 0
-75 -23 118 0
-18 -14 97 0
58 -147 -91 0
-53 -35 127 0
-109 139 147 0
48 99 85 0
82 36 67 0
-114 -105 96 0
87 46 145 0
-64 146 107 0
-70 -146 43 0
-82 -53 134 0
37 146 115 0
-51 86 77 0
72 59 -31 0
-132 -49 -78 0
93 -63 17 0
-134 85 -148 0
8 -45 72 0
-104 -65 -47 0
56 -20 53 0
-75 -113 32 0
-101 -42 20 0
76 -37 46 0
-127 69 139 0
-23 -123 87 0
146 108 -61 0
-71 100 -21 0
82 24 102 0
124 -14 -109 0
111 -130 -112 0
-114 131 96 0
119 -32 -46 0
-23 127 -98 0
126 -3 -1 0
109 42 -71 0
-75 51 -1 0
128 -129 11 0
-88 145 -79 0
-139 -107 -78 0
50 -46 2 0
142 -104 129 0
-94 -96 126 0
124 -99 84 0
108 -74 53 0
-39 45 89 0
36 -42 -108 0
96 -1 147 0
114 -60 -26 0
-109 46 38 0
1 -52 -143 0
124 18 -16 0
136 110 -70 0
-100 -123 -63 0
-58 -52 -63 0
110 -142 132 0
149 136 39 0
143 -112 138 0
37 -64 -86 0
-61 123 -140 0
-35 30 -149 0
-66 -104 -8 0
-46 90 -15 0
40 105 112 0
-104 113 -117 0
-106 114 -59 0
-18 12 -92 0
129 147 146 0
-125 72 11 0
-100 31 15 0
143 121 -128 0
-71 -29 138 0
37 149 78 0
121 -47 -68 0
-90 -122 -38 0
9 -3 -120 0
-59 -131 91 0
149 -131 -110 0
-42 -69 81 0
-69 8 80 0
125 96 -70 0
-61 98 -76 0
-125 128 147 0
42 -37 -110 0
22 83 62 0
-3 -35 -118 0
-122 -108 -121 0
-63 138 10 0
142 97 -3 0
19 -40 10 0
104 -21 90 0
-146 57 150 0
67 66 82 0
47 -33 -25 0
80 -72 -22 0
96 -22 115 0
14 62 142 0
11 -124 -4 0
-95 -17 4 0
-29 17 36 0
129 29 17 0
-97 148 59 0
-34 -140 -113 0
149 -145 -102 0
2 48 142 0
92 13 -83 0
28 147 25 0
-140 91 -136 0
-142 18 141 0
62 140 110 0
-48 128 -14 0
79 136 121 0
8 13 -96 0
-80 70 -101 0
36 57 86 0
-97 -111 15 0
-90 -6 -131 0
-110 -85 -125 0
-122 -147 64 0
69 -58 -119 0
49 -84 -40 0
100 5 -32 0
-70 -128 19 0
65 59 -44 0
-13 -34 112 0
-125 -116 50 0
-57 -64 2 0
68 -95 -42 0
4 -54 -80 0
47 132 114 0
82 -104 142 0
86 -142 -11 0
-148 90 -56 0
14 -24 -81 0
86 -117 -139 0
-117 -71 -28 0
30 89 -76 0
88 65 -29 0
-105 -94 107 0
138 -142 -93 0
61 -103 57 0
93 91 12 0
34 60 144 0
-110 -69 131 0
101 25 -80 0
-104 56 86 0
-53 52 23 0
51 89 111 0
-2 42 125 0
117 -148 50 0
29 -124 -98 0
143 -42 -44 0
134 -70 -51 0
-127 78 4 0
116 -50 123 0
125 89 -105 0
-15 99 32 0
39 85 32 0
-86 -81 20 0
-27 95 34 0
-65 -2 18 0
116 -13 98 0
84 -55 -63 0
6 25 93 0
-28 98 77 0
-49 -122 109 0
23 52 69 0
-2 125 29 0
77 89 27 0
-92 -84 -137 0
-99 141 -10 0
110 20 -133 0
-133 18 98 0
-120 44 -51 0
-9 -117 5 0
65 -88 1 0
-1 67 -92 0
-13 131 22 0
-8 46 -127 0
36 -117 47 0
110 83 -16 0
-99 12 85 0
54 -84 -37 0
94 -67 -53 0
-54 -145 -120 0
-25 -50 89 0
-108 -16 -98 0
118 41 120 0
-67 63 30 0
18 23 -52 0
-41 93 74 0
-106 -33 139 0
49 -134 -67 0
-49 138 -82 0
144 145 43 0
-125 -83 46 0
102 -94 -81 0
132 86 112 0
109 89 117 0
43 -33 -19 0
-133 -127 -92 0
68 -46 19 0
-86 74 -85 0
-135 -60 -109 0
33 93 39 0
-50 88 -64 0
91 -17 -126 0
-108 -6 -111 0
39 66 -121 0
-107 -27 5 0
55 6 42 0
150 87 -94 0
132 -58 -35 0
-26 68 33 0
35 106 33 0
-122 28 87 0
-101 126 -140 0
-9 -21 32 0
46 109 138 0
101 49 -87 0
-11 -54 -50 0
-49 -23 9 0
146 -117 64 0
76 -88 -87 0
-121 112 42 0
56 -85 -110 0
-4 -137 -111 0
-96 4 -124 0
-101 146 -147 0
-28 -146 32 0
118 70 -100 0
3 10 37 0
-84 -134 -102 0
54 -86 53 0
-130 -103 -105 0
-137 95 139 0
99 -42 18 0
-22 79 -65 0
-104 94 75 0
-113 -127 -17 0
-37 119 -85 0
-140 -149 -85 0
85 -134 77 0
-68 146 71 0
89 141 -111 0
-2 -132 28 0
148 -150 30 0
27 75 1 0
21 62 69 0
103 -57 107 0
106 -78 -116 0
148 -46 -74 0
4 -75 33 0
73 71 -36 0
-103 136 -87 0
111 129 -46 0
27 -43 40 0
-32 -67 -41 0
125 -1 42 0
4 -112 -64 0
82 20 121 0
-15 35 -90 0
1 -137 100 0
123 -89 141 0
23 127 36 0
59 -7 2 0
98 -148 -107 0
18 49 61 0
-107 -129 -59 0
78 41 37 0
-78 -55 5 0
53 80 -146 0
88 51 98 0
108 -51 85 0
48 -132 -35 0
-80 -131 -83 0
-146 55 -66 0
117 -81 141 0
-31 128 1 0
111 -74 -23 0
20 83 -72 0
-129 53 3 0
28 -103 -51 0
69 -147 -30 0
33 -98 -102 0
-43 119 -40 0
67 81 -73 0
-124 111 -123 0
48 99 -132 0
23 60 -53 0
-141 35 -25 0
-107 124 31 0
73 25 139 0
-109 -32 -107 0
150 -84 -39 0
48 41 129 0
-79 22 3 0
95 44 -49 0
-136 -12 141 0
146 -4 -49 0
74 124 19 0
-7 -36 -60 0
-147 85 -25 0
10 119 40 0
96 -142 -39 0
-92 -18 -28 0
-150 128 -121 0
-118 41 -113 0
137 -41 -63 0
-47 -34 -99 0
85 27 -78 0
87 -118 70 0
6 -98 -136 0
-143 77 -145 0
113 -37 13 0
-54 3 -2 0
