p cnf 100 426
-83 49 -89 0
-90 94 68 0
-95 16 -52 0
17 -20 88 0
-82 52 -22 0
100 49 19 0
-74 91 -12 0
-18 -85 -82 0
64 -17 98 0
26 -21 -19 0
-35 -72 44 0
-25 72 60 0
-38 -43 24 0
-66 83 -3 0
-67 52 -3 0
23 -24 -34 0
-62 34 -58 0
-44 6 92 0
-65 94 -75 0
34 27 -5 0
46 -56 -18 0
-66 57 -94 0
79 80 -31 0
-54 83 -17 0
-12 -13 94 0
36 -62 -76 0
-11 97 74 0
-43 16 -98 0
-76 -98 -42 0
73 -38 40 0
59 73 94 0
-17 -72 -31 0
-53 -61 28 0
-29 17 -85 0
-33 -66 -98 0
99 -53 -43 0
-22 -48 -100 0
-21 -68 -22 0
15 68 28 0
-66 44 -55 0
-55 -63 -53 0
-52 36 -42 0
94 -36 74 0
-11 30 46 0
45 -88 -91 0
90 -80 -63 0
-12 88 -9 0
88 -21 -55 0
-84 16 79 0
35 79 -53 0
100 83 56 0
68 -77 -55 0
7 -73 27 0
-15 51 -25 0
-74 61 84 0
-17 -68 36 0
99 85 -77 0
-73 81 -67 0
-11 82 -65 0
26 -39 71 0
29 -57 -96 0
52 96 63 0
54 3 45 0
-79 -56 -63 0
52 82 -90 0
-96 -27 51 0
-74 9 -14 0
-45 -53 57 0
65 -47 -95 0
-46 -42 -93 0
-28 -72 32 0
41 71 18 0
34 28 -78 0
37 -96 -51 0
3 -62 -44 0
-73 13 78 0
-9 20 74 0
40 78 100 0
36 -80 -70 0
67 -100 83 0
57 56 -45 0
62 -3 47 0
-91 27 -82 0
69 61 85 0
-73 -23 19 0
79 -7 63 0
15 45 27 0
7 85 15 0
59 -30 99 0
-10 85 34 0
47 60 65 0
-35 83 94 0
43 -84 48 0
31 19 -69 0
-100 -87 96 0
-96 77 -39 0
84 -53 -52 0
-99 -34 81 0
-31 -28 -95 0
57 1 39 0
-76 57 -82 0
-86 -76 -63 0
38 16 72 0
6 -67 92 0
99 52 -5 0
50 13 -3 0
85 -6 -98 0
59 74 -83 0
-90 77 -23 0
51 -91 -20 0
-100 -31 -86 0
57 -52 -87 0
-63 -31 -48 0
77 53 6 0
-69 -28 35 0
45 14 97 0
-7 78 60 0
40 -79 -30 0
-41 -62 92 0
-9 89 -35 0
-86 -2 7 0
47 100 -81 0
50 -4 66 0
-86 54 -31 0
-34 91 -100 0
98 -67 50 0
-17 87 26 0
-85 -22 42 0
-14 -75 -63 0
-19 43 -80 0
-41 58 -34 0
90 -28 24 0
10 -15 -67 0
98 90 44 0
66 3 -88 0
-83 70 -13 0
93 55 -66 0
36 -64 11 0
-10 34 85 0
8 13 15 0
50 2 -26 0
38 -60 -62 0
85 -86 62 0
-60 49 19 0
-84 -62 89 0
13 -64 -19 0
-51 72 7 0
74 -29 6 0
-39 84 43 0
-39 14 76 0
-88 97 -30 0
-33 -73 -5 0
83 2 -30 0
15 91 -77 0
-95 48 -72 0
19 75 51 0
16 43 -32 0
-94 -18 100 0
1 -18 -23 0
-4 71 91 0
2 -19 78 0
-30 97 -65 0
82 11 -1 0
42 -11 62 0
-28 99 -89 0
95 -11 39 0
70 32 -25 0
82 -75 -91 0
44 98 78 0
63 90 -4 0
8 74 -39 0
49 1 -43 0
-30 -98 82 0
58 -50 72 0
-52 59 60 0
50 -36 -29 0
-92 -76 59 0
11 82 98 0
-23 -34 -75 0
-58 -43 97 0
44 -15 -100 0
-6 -76 -39 0
28 15 70 0
44 38 -21 0
-75 -47 92 0
16 -14 7 0
40 -58 47 0
-60 20 66 0
88 74 -27 0
88 4 -98 0
-88 -49 68 0
-56 -49 -93 0
84 -92 -53 0
-71 -61 -5 0
59 57 -77 0
73 53 -19 0
96 -98 57 0
-57 98 -31 0
-54 23 -24 0
84 22 -37 0
-100 31 -7 0
30 -33 -36 0
-4 49 73 0
1 52 79 0
-69 -51 42 0
65 -44 32 0
-49 -34 33 0
-69 62 100 0
-75 -81 97 0
-22 -47 -45 0
-1 42 -32 0
-17 47 -43 0
-55 71 68 0
87 -24 6 0
-16 32 -10 0
-80 -92 -42 0
-76 -100 74 0
68 -100 62 0
-90 -10 -33 0
-53 23 -74 0
51 40 39 0
-24 70 72 0
11 90 6 0
11 20 -3 0
-97 1 11 0
35 9 51 0
-90 9 8 0
-60 -41 84 0
52 88 -74 0
30 -93 -51 0
-38 -95 70 0
-74 48 65 0
-72 -28 51 0
12 -34 43 0
52 -63 10 0
-91 13 80 0
93 -14 -73 0
62 86 17 0
-17 6 -16 0
46 17 -31 0
-1 35 74 0
-44 65 -21 0
-81 48 -42 0
78 -83 -57 0
60 -43 -59 0
-40 24 39 0
53 -21 -50 0
70 31 -89 0
61 -94 58 0
-60 62 22 0
-40 -26 -81 0
60 -67 64 0
-61 -15 -44 0
-29 -67 -87 0
-74 7 -98 0
3 83 -38 0
-7 -81 4 0
9 54 90 0
37 -22 -52 0
18 17 47 0
53 -77 -30 0
-35 -81 8 0
31 14 -91 0
51 -40 9 0
74 2 -82 0
-29 -28 43 0
-40 21 -74 0
-98 -83 -42 0
62 -11 -46 0
-22 -56 99 0
100 31 52 0
-78 -73 -3 0
56 -39 -59 0
-39 19 -58 0
-42 41 -34 0
23 -83 -32 0
93 91 -96 0
-35 74 29 0
74 52 76 0
-100 -86 -76 0
-23 66 61 0
-32 66 -13 0
30 -36 -44 0
7 24 30 0
-38 98 -61 0
-48 25 92 0
-45 6 42 0
-17 42 13 0
-46 42 -69 0
35 82 -90 0
-88 87 39 0
76 80 21 0
-42 30 66 0
67 10 -76 0
-45 -3 92 0
-33 -98 9 0
89 64 97 0
51 -56 -30 0
36 -53 32 0
-53 -18 -10 0
92 56 -31 0
59 56 10 0
78 -72 -85 0
54 77 58 0
28 -89 55 0
98 76 5 0
97 54 94 0
-20 -63 -66 0
-27 -5 -36 0
-50 32 -72 0
91 -69 -94 0
-54 -77 -6 0
-49 -43 52 0
62 23 68 0
-63 -21 1 0
86 38 58 0
54 37 -3 0
100 -4 -69 0
-67 -98 77 0
-83 -33 45 0
60 11 34 0
-56 49 68 0
72 44 98 0
46 -56 6 0
52 -27 -39 0
81 -84 57 0
-5 -18 45 0
-98 -28 31 0
31 3 -87 0
-62 -14 76 0
-37 71 62 0
34 86 -8 0
-44 -42 4 0
-5 -65 -96 0
-71 27 73 0
67 66 62 0
2 -26 -99 0
8 4 75 0
-40 80 -29 0
-36 -14 -57 0
-41 35 -53 0
89 -25 46 0
19 44 20 0
1 22 -17 0
37 5 -48 0
14 24 -47 0
-6 -34 14 0
65 2 44 0
70 15 -24 0
38 -99 -36 0
49 25 54 0
42 71 37 0
34 -89 -72 0
25 93 10 0
39 47 -6 0
-15 69 5 0
-76 -16 34 0
74 53 1 0
-12 65 73 0
-75 -79 17 0
85 87 77 0
-72 71 -86 0
29 34 11 0
-14 15 -72 0
-44 11 -90 0
57 76 86 0
-47 54 1 0
50 -59 13 0
28 9 -3 0
98 50 -35 0
-59 -42 -85 0
59 93 -35 0
-58 -34 -80 0
-58 1 78 0
-30 -51 96 0
81 -52 39 0
-22 55 -98 0
90 83 -72 0
-31 12 -88 0
78 52 83 0
42 -29 51 0
-36 57 -38 0
-72 -49 -100 0
-35 66 -33 0
32 52 -14 0
60 1 -97 0
29 -84 -62 0
-26 5 -57 0
-57 14 74 0
5 -36 79 0
38 -12 46 0
-30 -86 -85 0
-90 44 -48 0
62 100 88 0
32 -1 -97 0
-75 -24 50 0
-50 -92 -15 0
-59 31 -14 0
-39 98 -55 0
-92 93 -20 0
72 45 -68 0
-80 20 62 0
12 -34 90 0
-74 26 -16 0
57 5 -56 0
62 30 -41 0
16 50 -18 0
-72 79 25 0
-39 -52 -27 0
-2 -14 38 0
-63 1 -30 0
-61 -90 13 0
96 75 -20 0
84 -8 43 0
7 -1 -86 0
86 -99 96 0
54 -10 -75 0
-99 96 -80 0
-30 -1 7 0
-98 -25 68 0
-74 -80 -7 0
91 72 -52 0
-10 -8 34 0
-60 81 -32 0
47 -41 93 0
-10 -99 68 0
