p cnf 100 426
54 -17 -100 0
1 89 -61 0
10 -61 -81 0
100 46 -12 0
69 76 45 0
-33 -5 78 0
-1 -45 -70 0
42 -58 34 0
-47 -32 78 0
63 61 1 0
2 92 -40 0
-3 -98 -32 0
23 11 70 0
-99 21 95 0
-70 71 -52 0
96 -3 85 0
-42 21 -78 0
-37 89 56 0
31 44 -93 0
78 60 -39 0
-7 98 -99 0
-78 72 62 0
-87 -92 -16 0
-93 89 81 0
-12 26 88 0
13 43 69 0
21 52 -31 0
-52 -5 -38 0
21 -19 3 0
-1 61 62 0
-62 93 -90 0
-87 -99 18 0
97 9 -38 0
-44 94 -32 0
-50 53 17 0
-98 74 -49 0
18 -96 50 0
-48 63 -72 0
67 -52 7 0
6 51 31 0
94 -68 83 0
-2 80 70 0
-6 76 -16 0
82 4 19 0
-21 89 26 0
60 -90 -77 0
24 -51 6 0
-18 -60 -45 0
-85 -42 -33 0
18 -6 -41 0
89 37 -43 0
-81 -72 16 0
45 -68 28 0
43 51 -52 0
48 20 16 0
53 -49 2 0
-54 18 40 0
-58 -82 20 0
-17 26 -46 0
-4 -10 48 0
-30 87 93 0
13 -41 -55 0
48 17 23 0
-42 40 57 0
34 94 -96 0
89 -60 75 0
-95 -11 -98 0
-51 -56 96 0
28 55 43 0
42 -92 -78 0
51 71 -1 0
32 96 -89 0
-70 -34 32 0
-24 21 4 0
-25 -19 89 0
-88 -18 27 0
-6 24 -72 0
-51 -59 49 0
-22 -57 -61 0
-29 -93 69 0
31 88 -24 0
-1 9 -55 0
67 -36 38 0
-10 -78 76 0
-87 -62 43 0
35 89 -44 0
-57 -42 56 0
71 -29 16 0
-37 32 -28 0
81 93 100 0
-60 28 -27 0
90 5 51 0
-57 1 27 0
5 -43 -79 0
18 -81 -37 0
91 -39 94 0
87 -83 -56 0
55 -59 54 0
-56 21 2 0
-66 -85 -46 0
34 -53 94 0
-77 63 -83 0
-76 90 -99 0
-70 -91 36 0
77 -91 -65 0
-41 -2 37 0
54 100 -56 0
76 33 -49 0
-75 91 -69 0
14 -43 79 0
3 -1 90 0
-90 -21 -18 0
91 -39 -64 0
-21 -44 -51 0
-9 66 -100 0
-27 -58 68 0
85 -70 38 0
-10 94 -26 0
-52 -40 -60 0
-35 51 4 0
-57 -80 35 0
-87 -70 -31 0
57 20 -26 0
8 74 19 0
13 54 42 0
65 -53 -36 0
-52 -42 97 0
23 33 61 0
-68 -58 -44 0
17 38 88 0
33 -42 -14 0
-34 -9 -99 0
1 19 -26 0
-55 -3 -66 0
6 -94 9 0
-6 80 -39 0
66 83 -53 0
-94 -7 70 0
-78 100 -36 0
2 75 -99 0
-77 63 74 0
20 72 -35 0
68 2 39 0
-97 99 -49 0
2 -74 42 0
-33 -87 -3 0
-71 6 18 0
79 -33 -35 0
-30 -12 -46 0
-43 -67 36 0
40 -20 6 0
-59 61 -37 0
15 -85 -40 0
88 67 -93 0
93 -17 -78 0
90 66 36 0
-99 29 -22 0
47 -93 71 0
59 -54 62 0
57 25 -90 0
-28 85 83 0
68 -98 12 0
-19 -49 47 0
-71 -76 3 0
59 93 19 0
-65 -75 4 0
87 -74 -8 0
-55 -41 -35 0
-58 8 86 0
-58 75 -42 0
54 -64 41 0
70 80 88 0
-66 9 -46 0
72 -75 -39 0
81 -50 -22 0
71 -66 -57 0
3 88 -62 0
88 -14 -24 0
-4 -81 -43 0
-13 -20 -73 0
-84 98 -13 0
-84 63 -1 0
77 -5 16 0
-100 19 -76 0
-30 -29 -36 0
-56 85 39 0
92 41 -6 0
-53 -67 94 0
46 89 58 0
-13 -99 -22 0
13 42 -43 0
-41 57 -87 0
-68 -62 80 0
36 91 -34 0
27 14 10 0
7 84 90 0
83 -42 7 0
42 -81 -97 0
-10 96 -5 0
80 -58 69 0
39 100 81 0
-53 61 -74 0
-30 99 55 0
3 9 56 0
-28 98 64 0
75 -64 -47 0
-91 86 -19 0
72 100 -96 0
12 -43 72 0
21 30 -23 0
48 -9 -71 0
75 56 50 0
-38 50 -61 0
-45 -96 -81 0
-81 -63 -35 0
55 9 57 0
-22 10 -66 0
83 -37 -13 0
-86 62 -50 0
72 27 89 0
-17 -76 93 0
-82 31 26 0
82 -45 -96 0
-91 24 15 0
-59 -16 77 0
-10 -1 -18 0
36 -23 5 0
88 -90 29 0
-27 -93 -57 0
-63 46 -80 0
79 10 -42 0
16 36 38 0
45 9 59 0
-40 18 49 0
63 97 -17 0
-97 46 -95 0
-43 -46 75 0
-57 49 34 0
28 71 -42 0
-44 9 -94 0
-35 100 -37 0
-62 -19 -24 0
39 61 97 0
-47 -36 49 0
-62 38 75 0
34 -90 -76 0
41 -28 9 0
75 42 37 0
13 -66 25 0
-7 -8 -13 0
-11 40 -27 0
33 30 -56 0
2 63 71 0
-86 52 81 0
98 -59 -7 0
-19 55 -75 0
10 -48 34 0
5 7 -24 0
-43 -83 89 0
42 18 22 0
20 4 52 0
-33 41 95 0
52 -55 32 0
18 36 -5 0
-76 17 24 0
-84 -4 -13 0
10 -15 98 0
74 13 25 0
49 -15 28 0
53 87 37 0
-52 -39 99 0
-1 23 34 0
-23 -96 7 0
-56 97 -59 0
-32 -36 85 0
80 -61 30 0
-89 23 -50 0
73 -9 -35 0
-48 -32 82 0
39 -14 35 0
52 75 90 0
35 98 51 0
-27 -72 75 0
-98 -82 -99 0
-20 -38 -26 0
64 76 20 0
-83 -59 -90 0
71 -29 42 0
-71 43 -65 0
-53 13 -51 0
-76 -82 -31 0
85 -10 -54 0
65 -11 -13 0
89 60 -12 0
61 -17 -49 0
99 -1 -13 0
-71 92 -3 0
74 27 16 0
26 -76 99 0
-42 -83 -36 0
-82 22 -50 0
27 25 -77 0
76 81 -39 0
-65 86 -11 0
90 50 -92 0
58 -87 4 0
43 29 77 0
-22 45 -99 0
32 -73 -78 0
11 -25 29 0
-86 54 -62 0
69 -13 -37 0
34 12 94 0
77 28 -5 0
-14 -52 -2 0
85 -11 -99 0
-21 -5 20 0
-54 -16 -52 0
10 80 78 0
-99 -26 34 0
-71 34 20 0
55 -8 90 0
-76 13 27 0
-62 -13 90 0
-18 91 -13 0
-3 -18 39 0
67 72 84 0
69 59 81 0
-90 10 99 0
66 -48 63 0
-10 31 -71 0
-64 -39 79 0
74 37 22 0
7 -10 91 0
-7 -53 77 0
9 53 71 0
-42 -23 -97 0
1 18 -82 0
-91 -60 75 0
68 46 -55 0
77 29 -8 0
90 94 -44 0
52 -27 -47 0
-24 58 82 0
18 98 84 0
-2 61 -3 0
-84 36 -15 0
-66 83 -54 0
-66 -57 100 0
-82 -53 -70 0
98 13 63 0
-22 25 -65 0
85 -21 18 0
72 20 37 0
20 -68 -25 0
5 -1 -35 0
58 -78 15 0
-15 -32 -45 0
-41 -25 100 0
83 -68 -76 0
-56 -38 16 0
-63 72 6 0
-17 70 3 0
-80 37 92 0
-43 -98 -17 0
84 34 37 0
-94 81 -17 0
87 72 -79 0
-64 72 -83 0
-60 -72 75 0
-85 80 -93 0
-31 93 -52 0
-71 -42 -45 0
40 -90 99 0
-95 1 -54 0
-89 -39 -46 0
55 2 49 0
59 31 30 0
6 11 52 0
-29 54 -85 0
8 18 46 0
-62 93 -52 0
51 -38 35 0
-24 -42 2 0
19 -33 -23 0
-36 11 -59 0
-44 32 51 0
-59 37 -75 0
73 49 2 0
31 98 -28 0
87 -77 -38 0
-42 82 69 0
-6 36 3 0
-24 89 80 0
38 21 77 0
-53 60 70 0
88 31 -76 0
61 1 51 0
-5 -28 -16 0
-39 69 100 0
-6 54 -13 0
83 32 -28 0
11 -78 8 0
75 83 44 0
-44 49 92 0
66 -95 48 0
-58 75 80 0
-100 45 -94 0
-11 50 -84 0
99 10 -37 0
-32 57 2 0
-97 -46 26 0
-11 86 58 0
55 -44 -8 0
98 -54 9 0
12 -90 83 0
10 93 80 0
-15 -51 62 0
-50 81 62 0
20 -26 -88 0
-10 -18 49 0
66 48 54 0
20 78 -40 0
-32 59 -44 0
-73 -90 20 0
19 -34 -56 0
