p cnf 50 213
-5 47 16 0
-48 -19 36 0
-28 44 33 0
44 35 45 0
48 -1 46 0
-48 43 34 0
-11 44 49 0
-9 33 23 0
-24 8 -22 0
50 8 19 0
48 -41 -37 0
-42 -33 -3 0
-4 23 1 0
1 23 47 0
-32 -13 6 0
-32 1 10 0
-24 -20 28 0
29 -43 11 0
46 13 8 0
48 22 3 0
43 -18 -8 0
-46 -9 21 0
47 -48 -25 0
-9 -10 23 0
-44 -22 28 0
-19 32 6 0
33 12 16 0
-45 16 -43 0
-7 45 -47 0
38 41 10 0
13 10 -28 0
25 -27 34 0
22 28 31 0
8 18 24 0
21 4 -12 0
14 -19 31 0
17 32 -24 0
-44 36 -50 0
-24 -48 50 0
18 -14 38 0
48 -39 -8 0
-13 46 -29 0
22 -20 -47 0
10 -3 9 0
-49 36 -23 0
28 -5 -31 0
2 -11 39 0
37 -4 45 0
35 -33 5 0
-50 25 26 0
-37 -14 -38 0
-30 33 -46 0
-19 46 18 0
-16 -19 3 0
-9 18 -4 0
-35 -8 -1 0
-21 6 46 0
-40 -19 21 0
-23 15 -47 0
-35 -43 -50 0
45 -25 -42 0
14 29 -15 0
49 -26 10 0
10 31 -6 0
12 -13 -37 0
-2 -20 -11 0
13 5 -10 0
-26 -7 -47 0
39 7 25 0
42 3 9 0
-41 39 -1 0
-35 48 22 0
-49 37 29 0
-16 -4 35 0
3 -7 -35 0
10 1 15 0
-42 -19 -15 0
46 8 32 0
-19 23 -5 0
6 3 39 0
12 -44 28 0
19 23 7 0
-17 -46 -5 0
50 42 -10 0
-31 -5 8 0
6 21 9 0
-28 -31 -45 0
9 -42 -16 0
32 -35 15 0
-37 50 45 0
-24 1 -14 0
-9 8 -4 0
50 -9 -19 0
-27 16 14 0
45 46 -10 0
24 -4 45 0
39 11 2 0
1 37 -27 0
-48 34 -45 0
29 42 45 0
-42 -3 39 0
-28 -44 -30 0
33 -20 46 0
-6 34 25 0
40 -4 -15 0
39 5 -45 0
-25 -11 4 0
-7 -5 24 0
19 11 35 0
20 -13 36 0
-6 -37 3 0
21 6 20 0
26 33 13 0
9 45 -44 0
7 -33 50 0
38 -3 19 0
41 6 -46 0
10 -50 -46 0
-47 -39 42 0
9 -22 19 0
46 50 -44 0
-5 10 -37 0
-10 -50 -20 0
6 32 7 0
5 18 37 0
-50 -30 -17 0
-29 -42 9 0
24 -19 -26 0
-29 -24 33 0
44 -27 -33 0
3 -40 -42 0
-36 1 10 0
26 5 15 0
-30 42 35 0
-47 7 26 0
21 -22 39 0
-18 -30 3 0
14 -21 37 0
24 28 31 0
49 -44 28 0
5 -18 26 0
-27 34 -14 0
-6 28 22 0
-27 31 -35 0
23 45 -37 0
-39 -13 5 0
-43 -47 48 0
-30 10 -32 0
-27 -17 -34 0
-9 -41 29 0
-48 -13 -27 0
-14 -23 13 0
-24 -2 -20 0
-45 32 42 0
-35 28 -34 0
30 -28 -24 0
-25 19 43 0
-40 7 -6 0
40 -27 -7 0
-7 -41 -29 0
-27 -14 15 0
-31 -8 23 0
42 -46 -48 0
-33 19 -18 0
27 -44 16 0
-2 -10 -24 0
-21 -22 11 0
-26 -13 -40 0
-37 28 -9 0
26 21 -34 0
-9 -33 -8 0
41 17 36 0
-2 -28 1 0
-46 35 -6 0
30 41 -50 0
-20 -13 -35 0
-25 50 -17 0
-41 2 -38 0
8 -7 10 0
32 24 14 0
5 -32 41 0
-21 41 29 0
-12 -43 37 0
-22 -23 31 0
-34 48 17 0
-2 34 33 0
14 2 -21 0
9 18 -31 0
-42 19 -30 0
26 -13 -17 0
-18 -26 7 0
14 47 -32 0
18 21 40 0
-23 24 -41 0
33 -17 -38 0
34 23 26 0
12 -23 16 0
50 -21 -8 0
-14 -30 -37 0
25 19 -39 0
46 -39 43 0
-49 28 21 0
32 3 18 0
21 38 25 0
37 -1 30 0
35 34 3 0
27 -47 20 0
36 50 21 0
-30 32 42 0
40 -7 2 0
21 45 47 0
-24 -35 1 0
-3 8 4 0
