p cnf 150 639
-33 100 -104 0
25 -15 60 0
120 -9 62 0
106 -124 123 0
143 115 2 0
14 17 -2 0
112 -127 -44 0
-90 30 -88 0
-67 52 -73 0
20 -13 14 0
-127 11 86 0
-79 72 63 0
-110 -54 103 0
-48 130 -103 0
-60 -65 21 0
-108 69 26 0
-76 55 59 0
104 146 109 0
143 46 -117 0
-64 -10 -16 0
40 72 19 0
50 -110 -126 0
41 17 -27 0
-149 -41 111 0
148 -127 -11 0
94 -26 -60 0
-146 -138 -110 0
50 86 -76 0
-121 92 97 0
126 10 102 0
54 131 94 0
40 17 21 0
-21 80 85 0
70 27 88 0
-95 146 -36 0
47 3 121 0
-133 -99 42 0
-49 34 -130 0
-43 147 -32 0
-69 -4 -8 0
109 139 115 0
-95 -23 -137 0
-120 73 67 0
64 -24 42 0
150 48 -57 0
-92 -9 57 0
109 -72 150 0
82 52 122 0
106 -114 17 0
89 32 -74 0
35 100 -11 0
-91 -90 -139 0
136 145 16 0
65 -71 -148 0
-55 -27 32 0
14 -137 54 0
48 -27 -110 0
116 108 -36 0
-117 53 -26 0
-133 64 56 0
37 129 25 0
140 -141 138 0
134 75 -10 0
-143 14 15 0
-133 -20 -81 0
-97 40 38 0
-54 -99 71 0
-80 -111 -93 0
37 -4 93 0
120 -55 39 0
15 -124 123 0
-54 -34 11 0
-116 35 88 0
10 4 -141 0
133 132 -42 0
-132 83 -58 0
130 121 124 0
-139 102 123 0
-4 -49 124 0
-104 122 37 0
-32 -148 -65 0
-23 48 50 0
-45 -51 70 0
10 139 57 0
95 60 -102 0
-122 126 -113 0
-145 71 -32 0
-2 -139 -149 0
16 -50 43 0
-135 -17 122 0
-34 86 59 0
-90 83 36 0
-50 -14 -140 0
-122 105 -13 0
15 -51 -64 0
-87 129 54 0
-33 -131 89 0
70 -58 -99 0
134 -61 -62 0
30 -113 82 0
-76 -119 17 0
-100 89 -19 0
71 -42 -145 0
-115 -65 101 0
53 -138 97 0
117 141 -26 0
32 -121 -109 0
142 -131 34 0
38 124 -9 0
31 134 93 0
53 137 -61 0
9 -61 116 0
-126 16 -150 0
92 23 51 0
9 -3 -51 0
-94 123 -9 0
-40 107 -62 0
-14 128 130 0
-105 67 -38 0
-26 38 -91 0
32 -43 -49 0
-8 -51 14 0
-96 104 62 0
6 -44 -25 0
4 -73 15 0
126 -140 -26 0
64 -63 34 0
-38 -53 -22 0
-100 -46 29 0
93 111 87 0
18 -66 31 0
36 -17 73 0
-31 -32 -68 0
100 -73 83 0
-147 -66 17 0
-32 97 25 0
-64 119 -1 0
-121 133 61 0
63 98 -113 0
-95 53 -77 0
128 -16 -32 0
24 -41 -31 0
-35 68 144 0
130 -121 32 0
143 -134 -7 0
-27 47 17 0
2 -109 -31 0
-100 -121 -69 0
113 -131 7 0
-112 60 56 0
-93 -114 80 0
125 22 126 0
134 148 -97 0
101 -99 -60 0
84 -137 -108 0
41 100 52 0
-41 5 73 0
89 38 18 0
18 134 -114 0
73 123 -26 0
-150 103 122 0
27 100 -146 0
-139 -131 95 0
62 75 -59 0
-141 91 -115 0
133 -112 -119 0
-16 -24 -85 0
-35 -127 -11 0
-96 -122 117 0
13 -83 -60 0
14 142 -148 0
63 -140 46 0
-116 -21 -42 0
65 -20 -18 0
-28 -39 127 0
99 -103 -46 0
39 -128 33 0
-4 -146 149 0
94 4 -117 0
-92 -35 112 0
-114 -87 105 0
2 10 92 0
63 -13 65 0
53 -136 -118 0
122 -93 -55 0
-74 43 -50 0
-34 64 -39 0
17 -10 102 0
-32 -140 111 0
-55 150 -88 0
-128 20 -35 0
-130 -68 -16 0
-2 -65 -24 0
119 57 34 0
-85 14 107 0
-70 -7 -94 0
63 -142 140 0
-134 125 -53 0
16 -84 -141 0
-136 87 -146 0
-138 4 83 0
106 125 -71 0
47 119 51 0
-119 10 72 0
-36 -136 -12 0
-28 37 75 0
-51 -117 126 0
-5 66 -115 0
-51 -117 -111 0
26 -127 145 0
115 56 26 0
18 -59 -109 0
95 -125 134 0
39 33 -35 0
-131 110 18 0
121 -4 79 0
127 41 65 0
-130 66 90 0
-131 19 -10 0
80 3 94 0
-47 55 11 0
150 60 -70 0
7 -121 -44 0
-83 64 -58 0
-145 -21 -113 0
47 -124 26 0
-124 42 -36 0
-136 109 29 0
-17 50 141 0
127 130 25 0
83 -4 -49 0
94 80 -46 0
-52 87 122 0
68 76 -6 0
141 78 57 0
-22 29 4 0
-11 104 95 0
-2 7 109 0
42 49 41 0
-74 41 -38 0
-67 -41 -134 0
81 13 20 0
6 144 61 0
82 141 -114 0
41 99 77 0
-6 -33 30 0
-126 112 88 0
-30 121 -134 0
-45 -118 149 0
55 45 146 0
103 129 3 0
123 90 72 0
20 108 132 0
-80 4 107 0
-54 -145 -6 0
118 15 -79 0
-76 -74 10 0
3 -51 -126 0
-7 79 -24 0
143 -34 105 0
15 -141 128 0
-43 26 -94 0
-51 125 108 0
63 130 25 0
-54 -44 92 0
61 136 59 0
-65 -19 -49 0
121 -71 -65 0
-1 48 36 0
116 -3 -59 0
-135 129 137 0
47 112 8 0
30 -8 -135 0
99 -150 127 0
36 -63 141 0
53 104 76 0
-121 -42 44 0
-69 58 -102 0
-48 -55 -142 0
-112 -23 -149 0
138 27 122 0
116 82 51 0
-29 9 45 0
41 144 97 0
-33 126 -121 0
-60 -19 -58 0
-67 149 6 0
-20 109 -136 0
57 -19 -8 0
91 70 3 0
-133 -125 6 0
-128 25 -124 0
6 -122 47 0
124 64 102 0
-114 -103 39 0
-119 -43 -99 0
-32 -137 94 0
26 134 112 0
100 -55 149 0
48 35 66 0
52 -66 -37 0
105 -57 79 0
-29 5 -95 0
136 100 3 0
-44 142 -100 0
-104 138 7 0
118 32 6 0
91 83 10 0
-52 -20 -67 0
-12 39 -4 0
-147 111 102 0
-53 -77 59 0
114 -98 -44 0
-105 -64 115 0
-2 67 -91 0
124 65 -15 0
-102 -43 -90 0
-32 23 -89 0
-46 37 117 0
37 -67 141 0
-121 -57 -51 0
-14 -39 -119 0
99 52 28 0
-9 -50 116 0
-19 46 -5 0
-7 99 127 0
82 -45 -61 0
119 107 -32 0
-150 123 49 0
29 20 16 0
-6 123 109 0
-26 137 100 0
63 133 52 0
113 78 103 0
-114 118 -49 0
-68 21 70 0
-95 123 146 0
36 -15 51 0
-1 136 117 0
103 128 -15 0
-118 -12 -26 0
144 118 -9 0
-31 101 51 0
136 52 -14 0
36 -115 143 0
10 -131 -137 0
74 -22 -99 0
67 -68 -113 0
127 -149 43 0
139 51 -147 0
-89 51 136 0
69 -29 -89 0
-61 -26 140 0
98 144 -94 0
99 -117 -52 0
-93 99 -137 0
83 105 112 0
56 -78 135 0
69 134 7 0
-24 130 -73 0
-97 78 -32 0
13 -94 -137 0
122 -142 134 0
97 -45 -115 0
-47 114 -102 0
117 -10 -102 0
-21 -121 43 0
-138 -16 -84 0
147 -61 47 0
-62 -103 -88 0
21 145 -123 0
6 37 119 0
-18 -126 -76 0
58 141 146 0
-72 5 86 0
-150 48 -64 0
110 -36 -66 0
-109 -97 58 0
34 -99 -109 0
-22 -45 38 0
-57 -121 -15 0
105 6 -51 0
64 -100 29 0
24 -141 -66 0
-150 -114 -90 0
-87 -41 -62 0
113 -39 -90 0
117 -20 -58 0
116 5 149 0
-101 -80 -75 0
-85 59 57 0
49 -35 109 0
-45 -136 -19 0
57 -100 77 0
14 -15 -100 0
18 -52 73 0
8 99 -89 0
127 80 121 0
-78 -10 112 0
-39 -124 -87 0
-100 -141 125 0
-77 -33 -27 0
131 -53 -28 0
-52 -128 148 0
78 35 8 0
-117 58 92 0
-100 -91 -46 0
139 -2 96 0
50 102 31 0
112 -6 86 0
145 -88 -1 0
121 44 102 0
-107 -117 90 0
63 -86 -68 0
61 149 127 0
-73 39 -84 0
81 126 -80 0
76 -109 96 0
102 -8 -53 0
67 -137 -147 0
27 127 -33 0
35 -133 142 0
136 42 -55 0
10 39 90 0
148 -133 -8 0
141 12 139 0
-67 -97 -127 0
-130 85 10 0
31 -39 -32 0
137 134 23 0
104 -131 122 0
-61 -59 136 0
80 -103 -18 0
-82 78 95 0
22 -113 -3 0
-80 19 94 0
-86 19 -139 0
-59 -39 -25 0
-122 11 78 0
-28 3 15 0
98 -132 91 0
15 -109 74 0
74 -76 -89 0
-44 -124 -36 0
-140 -20 29 0
-73 -122 42 0
40 -81 83 0
-28 57 -53 0
51 -58 -66 0
54 141 137 0
-65 99 -113 0
-35 47 -80 0
121 -35 85 0
19 49 24 0
128 -109 -39 0
-111 -38 -73 0
120 47 -128 0
-100 150 137 0
-74 -136 64 0
-54 -145 111 0
70 -127 -30 0
-118 -127 20 0
94 -101 -21 0
-117 80 -22 0
-37 98 -65 0
-93 35 57 0
125 49 16 0
-111 -72 87 0
-112 24 -103 0
-147 -145 57 0
-42 -43 115 0
-3 -91 81 0
107 144 -136 0
-36 145 107 0
-105 -64 60 0
149 -116 105 0
-22 -41 -143 0
106 -63 -32 0
-117 45 96 0
-65 -138 -136 0
-107 130 39 0
-133 24 35 0
-117 -119 -76 0
124 -138 -68 0
41 -70 36 0
-7 -98 -84 0
147 -95 55 0
-96 -68 141 0
49 -70 -10 0
47 -138 -76 0
147 -61 37 0
-123 23 -10 0
140 31 145 0
-123 -118 -92 0
64 -55 99 0
142 73 -88 0
125 -135 -25 0
-60 -27 26 0
102 -72 -116 0
64 63 -92 0
43 -131 -47 0
149 121 -128 0
-80 47 149 0
113 -10 -36 0
67 109 -60 0
23 89 77 0
-24 -45 47 0
-115 49 27 0
-148 -66 -147 0
-82 -27 -31 0
15 46 2 0
43 -26 140 0
-80 -40 -16 0
-77 -60 -84 0
4 134 14 0
49 -134 -13 0
93 108 50 0
2 93 58 0
-26 -83 -67 0
94 41 -25 0
-145 -112 34 0
73 106 124 0
113 49 -36 0
-101 99 115 0
-4 -26 133 0
-110 -99 150 0
147 97 7 0
-14 141 -65 0
8 -89 -98 0
32 -137 -16 0
-136 19 75 0
74 82 134 0
10 7 -117 0
117 87 -38 0
106 105 -127 0
131 -149 52 0
111 -129 70 0
62 -55 112 0
-61 -82 -88 0
94 -118 -42 0
-29 -130 -66 0
-98 48 -61 0
126 -15 75 0
-124 23 -105 0
68 -108 -14 0
23 39 57 0
-133 -8 -43 0
19 -55 77 0
-145 -112 -126 0
100 124 89 0
100 -118 -7 0
-45 -124 78 0
-140 -61 114 0
-57 4 -141 0
10 -27 76 0
29 -90 -20 0
-133 143 48 0
-44 76 130 0
50 115 69 0
64 146 -78 0
-128 85 -130 0
41 126 -113 0
-48 -44 119 0
39 -66 97 0
99 -53 -63 0
19 52 -82 0
117 -29 -107 0
-120 -13 53 0
56 -84 42 0
149 -71 -85 0
81 -88 -77 0
-35 72 -70 0
-142 115 150 0
-73 -133 38 0
-124 -47 -94 0
-98 137 106 0
7 31 -22 0
103 -91 25 0
-83 -94 -95 0
15 14 107 0
-124 123 48 0
-11 -138 -70 0
-7 -109 63 0
136 -36 63 0
128 -135 -116 0
-99 -51 -2 0
111 85 24 0
124 48 -27 0
9 6 54 0
16 -48 -3 0
-94 4 -28 0
-4 -15 -84 0
37 -58 -34 0
-52 -51 66 0
22 45 78 0
52 -64 5 0
-36 126 109 0
124 -68 77 0
-132 -27 31 0
143 4 -125 0
87 -53 -51 0
90 118 -132 0
19 -130 12 0
22 -53 101 0
108 6 -81 0
96 -25 -29 0
-123 143 -74 0
61 -106 44 0
-69 33 111 0
61 -48 33 0
116 35 -133 0
4 -5 126 0
-48 -146 61 0
3 148 -106 0
146 -92 -98 0
135 -24 114 0
42 38 144 0
-55 140 75 0
-63 -59 10 0
43 85 97 0
51 -1 -149 0
7 44 -116 0
45 84 -92 0
-111 2 -112 0
-30 69 62 0
63 2 90 0
125 -106 -61 0
-126 -98 59 0
-118 63 -113 0
-141 23 60 0
3 60 -128 0
17 80 64 0
-136 144 -121 0
-95 62 -52 0
-66 48 -138 0
137 130 94 0
140 -86 39 0
74 -24 -104 0
93 -24 95 0
