p cnf 200 852
25 -42 -38 0
116 -137 -108 0
-104 75 74 0
117 10 -127 0
173 147 157 0
-45 141 159 0
-190 -111 189 0
-33 -52 20 0
36 -91 -200 0
-72 102 -103 0
88 -7 -93 0
60 -66 -33 0
171 -3 138 0
-93 79 -147 0
-96 192 -3 0
-95 56 -66 0
-39 -195 -129 0
-108 -1 -44 0
75 199 -144 0
178 -163 -142 0
195 -89 -42 0
102 -24 22 0
111 -52 -10 0
-109 -185 165 0
180 -169 -143 0
-141 91 119 0
21 -68 -134 0
143 -182 92 0
199 172 150 0
-61 -13 130 0
170 -2 -136 0
33 127 179 0
32 -23 94 0
-162 31 -189 0
131 69 -140 0
-50 -155 -176 0
133 26 38 0
-104 99 150 0
23 85 158 0
-147 114 168 0
-3 71 -49 0
-18 -49 130 0
-145 -49 -19 0
27 124 -58 0
-158 126 32 0
-30 110 -98 0
-100 46 83 0
-69 117 -157 0
-174 -8 129 0
40 -83 148 0
-185 -137 -154 0
172 -81 5 0
173 -12 44 0
71 -184 104 0
190 162 12 0
-49 175 128 0
84 -79 121 0
-82 45 111 0
-99 145 -183 0
-49 -147 125 0
29 183 176 0
165 21 -73 0
58 46 -182 0
-165 -187 -145 0
-126 68 -33 0
93 154 -98 0
39 124 56 0
112 -130 151 0
-31 135 -82 0
16 3 -100 0
-182 127 -103 0
-33 144 -56 0
8 173 -148 0
-40 -143 154 0
-37 183 -103 0
-91 126 20 0
32 123 -85 0
-138 198 98 0
-135 72 62 0
150 132 -168 0
151 -87 -113 0
3 -14 178 0
-65 21 -83 0
-176 -125 -79 0
-82 -165 -138 0
-194 -25 -140 0
5 -191 192 0
-126 -62 164 0
-54 -180 106 0
48 37 129 0
-23 -17 4 0
76 134 29 0
-45 -143 141 0
165 -16 -27 0
195 105 121 0
-111 168 -62 0
-105 -108 158 0
-173 114 -185 0
145 195 105 0
-18 53 117 0
-54 185 151 0
171 -97 125 0
-137 45 -34 0
-127 169 173 0
-34 -68 148 0
131 -136 -46 0
165 56 91 0
-175 17 -166 0
-58 188 71 0
-45 13 -133 0
158 -7 169 0
-73 -170 139 0
-33 5 105 0
-71 62 -161 0
-42 -64 92 0
-166 -16 35 0
101 -184 196 0
119 -68 -126 0
63 -172 73 0
-108 -73 -113 0
-162 111 86 0
-5 -69 -99 0
27 -83 178 0
10 160 -101 0
93 -178 -129 0
-52 193 179 0
-34 45 151 0
-185 -163 87 0
-66 -56 64 0
-63 106 -57 0
-114 -184 171 0
-31 -158 -130 0
165 -21 141 0
-99 -168 150 0
-23 15 85 0
174 43 68 0
9 -164 -167 0
76 -46 -163 0
-17 -50 113 0
-79 -143 108 0
-57 -106 71 0
97 -22 -119 0
-129 -132 -161 0
16 -40 -95 0
143 -29 -101 0
61 -68 -75 0
1 44 45 0
-106 -7 162 0
136 -157 -49 0
-160 125 45 0
-51 -57 171 0
-53 44 139 0
-3 11 100 0
78 191 136 0
-152 176 132 0
-112 -156 -7 0
189 -45 -119 0
-69 -81 12 0
-163 44 -199 0
-160 -34 -118 0
42 -189 -85 0
126 75 81 0
48 -99 -139 0
138 89 107 0
85 -160 -59 0
-195 197 137 0
-13 -100 -162 0
78 -87 -116 0
-70 31 56 0
-19 107 47 0
-170 -197 173 0
-176 -192 -50 0
86 38 198 0
38 168 16 0
-133 -166 -198 0
197 97 -186 0
198 -122 -180 0
-157 87 -75 0
-44 -36 -3 0
-198 -117 -144 0
-27 -41 -123 0
126 8 183 0
-175 -60 133 0
3 172 10 0
16 -144 -13 0
-44 29 -198 0
-140 136 -124 0
-27 120 129 0
15 21 101 0
91 174 94 0
147 -123 149 0
-45 182 -191 0
36 182 134 0
136 -124 85 0
-47 -68 39 0
15 80 125 0
48 7 158 0
26 11 18 0
7 189 -111 0
3 -42 -70 0
-56 -90 9 0
-45 53 57 0
-31 -141 -195 0
-65 -46 176 0
-169 72 -114 0
148 -3 -84 0
163 149 -146 0
-127 39 142 0
26 134 -194 0
100 30 181 0
163 75 -170 0
-172 -161 -51 0
-39 152 -93 0
8 -86 187 0
-176 36 23 0
-196 -193 -101 0
-36 110 142 0
200 199 -77 0
-164 -126 -127 0
-145 -99 176 0
75 -56 -60 0
-142 -191 155 0
-199 -40 82 0
-147 168 102 0
186 83 143 0
-84 -57 155 0
187 -50 19 0
-186 -130 86 0
-69 61 -198 0
162 -106 33 0
177 64 27 0
95 -78 48 0
-101 -1 -31 0
68 103 -178 0
-5 -125 77 0
164 -140 -104 0
85 11 136 0
-163 193 -200 0
4 103 176 0
82 -119 138 0
-119 27 -53 0
-80 -164 35 0
12 16 51 0
3 -112 54 0
-135 -143 -17 0
-172 -87 110 0
-163 -87 -83 0
-28 85 46 0
-81 171 -16 0
-27 -87 -51 0
66 72 199 0
4 7 64 0
-167 44 12 0
-159 -97 -132 0
141 187 59 0
177 -131 -106 0
-68 -71 17 0
-153 18 -124 0
-161 -29 128 0
196 106 188 0
-185 55 -170 0
86 80 35 0
-64 199 150 0
9 86 -152 0
-48 -176 -67 0
-51 102 2 0
-46 179 44 0
-187 -48 -14 0
83 85 79 0
-97 -184 131 0
28 72 -141 0
-96 102 176 0
163 -156 10 0
85 107 116 0
143 34 -60 0
61 6 178 0
35 -187 3 0
92 -73 -26 0
31 165 188 0
82 -106 -165 0
-62 -197 35 0
95 23 50 0
172 154 2 0
-132 73 169 0
-69 80 -105 0
-73 -153 129 0
122 199 166 0
-132 -129 133 0
193 18 -165 0
91 -23 156 0
194 78 37 0
-52 -10 -109 0
27 -38 144 0
171 -74 -130 0
-5 -19 -51 0
79 -145 -76 0
197 34 -31 0
189 -138 -47 0
8 76 82 0
145 -110 -41 0
-195 122 164 0
-121 -110 -153 0
152 94 160 0
-57 -198 23 0
-15 -101 -64 0
93 159 13 0
114 74 -16 0
-125 -56 -84 0
-2 -149 -52 0
-178 -132 62 0
17 66 177 0
185 183 -100 0
13 -11 -150 0
-60 -161 -42 0
161 -91 -32 0
-178 -53 72 0
-175 23 117 0
-199 -5 -125 0
102 129 -169 0
128 -179 147 0
-162 -49 -144 0
-173 -139 -118 0
24 64 160 0
-190 84 -149 0
28 -67 -172 0
51 -131 -149 0
-58 -171 -64 0
-91 -189 72 0
192 75 -85 0
74 185 -186 0
192 -105 -90 0
198 160 -66 0
187 -67 12 0
-130 125 143 0
32 -5 6 0
158 69 122 0
26 -83 -171 0
105 -179 -37 0
197 163 -119 0
124 111 23 0
67 -20 -86 0
167 -16 -121 0
160 -163 146 0
162 -15 -194 0
148 -45 -99 0
-148 -59 194 0
-65 15 -130 0
-10 8 43 0
181 -126 -7 0
89 192 96 0
-123 154 -177 0
-63 -108 -187 0
-92 -48 12 0
63 73 126 0
-77 -194 110 0
175 77 184 0
8 46 -149 0
-38 197 14 0
86 93 155 0
-35 -44 -117 0
162 -141 -5 0
147 100 118 0
-134 136 -182 0
-118 -61 -199 0
-124 -131 -176 0
176 -114 39 0
-47 143 -191 0
-49 111 153 0
181 -7 -46 0
116 5 69 0
199 178 -95 0
130 -194 -63 0
174 186 30 0
158 -140 20 0
144 -24 105 0
-199 -140 -146 0
155 -28 184 0
124 -26 -69 0
-28 24 -87 0
-197 -52 51 0
-150 15 16 0
53 5 159 0
-22 142 -108 0
16 29 114 0
-173 -65 -188 0
174 -79 -95 0
-103 159 -107 0
-15 -182 -104 0
-79 31 -116 0
187 56 11 0
56 114 -99 0
81 -84 16 0
113 200 -21 0
-159 -127 50 0
-115 39 -64 0
183 8 -160 0
119 91 170 0
-128 58 6 0
74 -129 30 0
198 -119 -196 0
-166 113 117 0
-155 -82 -137 0
-29 180 42 0
92 140 -169 0
-40 37 -135 0
-85 115 -98 0
-99 44 61 0
-64 191 -87 0
-170 -187 -88 0
-46 87 -101 0
-161 14 -135 0
-90 -123 -37 0
-141 38 12 0
189 45 140 0
103 73 60 0
165 141 16 0
-195 176 -20 0
-162 14 -191 0
-194 -36 91 0
126 197 40 0
-74 -130 -147 0
105 147 130 0
12 -145 -27 0
-181 169 -144 0
-47 28 78 0
146 155 -96 0
-104 -2 88 0
-31 -29 -7 0
125 -191 -172 0
-180 74 147 0
-16 -21 60 0
129 -26 -155 0
-95 -117 81 0
-57 -81 95 0
81 94 1 0
-18 -26 1 0
-79 3 -157 0
173 50 75 0
-94 185 -76 0
184 155 152 0
-133 -191 -96 0
-13 40 -64 0
-119 -41 -153 0
41 -139 102 0
132 84 160 0
-146 164 79 0
-3 -39 60 0
-170 -51 14 0
-100 -62 -64 0
152 105 110 0
71 189 132 0
147 -23 -47 0
-66 -50 179 0
82 -108 147 0
-180 78 -179 0
-170 98 -193 0
184 20 -4 0
-12 93 54 0
-199 161 -23 0
119 -27 9 0
-110 -67 195 0
-137 148 144 0
17 -79 -187 0
-125 -147 12 0
127 165 -57 0
69 -29 -111 0
-114 92 -10 0
41 -27 -86 0
-4 -84 7 0
-182 -74 -197 0
-32 -199 -115 0
-15 -52 -174 0
152 -61 -124 0
131 27 199 0
35 -23 118 0
151 83 119 0
16 48 153 0
-26 -182 140 0
107 20 -15 0
-151 97 -124 0
160 32 34 0
-41 -102 -138 0
-127 137 196 0
33 129 -152 0
142 -109 -60 0
96 33 -170 0
-139 113 -157 0
77 -32 21 0
24 23 -92 0
82 38 -197 0
155 -197 -160 0
-146 -115 -106 0
-3 -14 -120 0
103 4 -67 0
182 165 -109 0
-124 11 54 0
18 26 -19 0
-124 14 -18 0
-121 130 79 0
65 -89 -97 0
60 39 7 0
-33 51 146 0
14 64 96 0
144 -67 -65 0
34 -29 -153 0
164 180 123 0
169 -74 146 0
115 181 112 0
-54 -75 -188 0
57 -68 135 0
-176 -85 126 0
131 -60 -38 0
-104 14 -112 0
-16 -19 -113 0
184 24 192 0
-142 63 -184 0
160 -185 -180 0
82 -30 -20 0
99 89 -24 0
196 -44 43 0
-196 -87 -131 0
158 -99 -13 0
-78 140 -37 0
120 175 -154 0
-96 -24 -91 0
-157 77 132 0
-136 -36 -153 0
197 -128 101 0
181 -133 -189 0
27 -134 -113 0
106 81 18 0
-93 115 101 0
-115 -47 -176 0
98 140 70 0
132 -155 -136 0
27 -67 -63 0
-65 46 102 0
-50 -39 84 0
24 12 -182 0
75 -83 57 0
157 12 -76 0
112 -153 23 0
-83 -18 -165 0
149 -178 27 0
22 -37 116 0
-44 -78 22 0
52 62 60 0
-169 159 116 0
34 -181 -36 0
114 159 -112 0
-8 -9 -23 0
-200 186 -88 0
-70 -140 141 0
-179 -30 -24 0
93 -78 -9 0
-66 6 190 0
-79 54 -36 0
-157 87 3 0
46 -128 -84 0
171 -106 44 0
197 42 85 0
49 -24 -34 0
-68 40 16 0
-71 -111 183 0
-48 79 -87 0
120 48 115 0
-172 157 -42 0
-9 -131 -199 0
41 -171 152 0
-71 -55 -136 0
45 156 12 0
-111 86 32 0
-164 117 61 0
117 -36 -113 0
180 125 -187 0
156 126 61 0
122 193 195 0
24 25 -154 0
131 -170 -197 0
85 198 17 0
-167 91 -168 0
-38 97 -117 0
61 -74 -78 0
-142 -50 -115 0
3 48 -173 0
78 141 74 0
56 -77 74 0
-44 -128 186 0
19 127 40 0
68 120 -115 0
137 -181 68 0
-99 38 -164 0
-147 155 79 0
128 90 -148 0
-112 -198 -162 0
-65 28 -61 0
175 113 24 0
156 166 29 0
-48 -172 68 0
196 99 -173 0
-180 99 -172 0
3 48 171 0
-188 81 21 0
105 -29 193 0
-134 -86 124 0
-160 77 20 0
112 -83 174 0
-11 95 -121 0
22 85 132 0
171 -4 45 0
-190 -140 96 0
97 -132 22 0
179 -134 -156 0
-113 -109 155 0
142 -194 -8 0
110 -198 -148 0
-40 97 128 0
-4 188 155 0
128 -69 155 0
-44 43 130 0
104 -48 -164 0
36 -152 -154 0
177 180 35 0
-15 -74 -36 0
-127 -95 160 0
-190 47 -147 0
93 -131 88 0
169 -83 -121 0
-93 -183 -51 0
-173 -22 -137 0
28 160 -66 0
65 106 -186 0
-180 137 150 0
140 -51 13 0
-1 82 65 0
-72 71 -33 0
-193 129 73 0
64 -183 -177 0
139 94 -9 0
78 -36 -45 0
-71 79 -179 0
-29 14 -170 0
166 -9 -40 0
-66 -23 -37 0
106 -177 12 0
165 42 -81 0
-32 27 158 0
-22 -126 36 0
-33 184 -97 0
197 113 149 0
12 -47 -116 0
200 -4 -30 0
150 90 -38 0
191 -189 -55 0
-29 -198 -170 0
-158 55 -71 0
73 -145 -77 0
-159 -40 -99 0
-19 -22 104 0
178 171 -67 0
48 -112 111 0
-139 -35 -153 0
-199 -118 98 0
-134 164 78 0
47 -110 58 0
131 195 -76 0
-69 29 106 0
-68 -46 30 0
168 61 133 0
84 86 -77 0
24 196 45 0
-190 85 -136 0
-122 -157 4 0
-174 112 -25 0
-107 -50 79 0
-138 -84 176 0
-132 2 54 0
-29 -59 -190 0
102 -132 87 0
-162 41 20 0
185 -142 -5 0
-82 -145 55 0
80 -184 32 0
-192 -22 -78 0
-159 15 120 0
-6 119 118 0
-32 12 150 0
163 -111 177 0
163 38 159 0
-152 200 -70 0
31 132 197 0
-156 50 60 0
-18 -49 111 0
-152 98 166 0
78 -153 -175 0
-140 142 88 0
32 192 181 0
-110 -69 8 0
-147 56 -14 0
-119 -72 -25 0
-110 6 188 0
-145 194 8 0
-57 -22 122 0
-125 -45 -26 0
-175 -118 -171 0
-186 -40 139 0
100 -88 3 0
-44 -54 -96 0
60 112 108 0
-29 -141 -54 0
51 2 38 0
-40 -55 -152 0
-87 -153 -182 0
-92 -179 24 0
124 -146 33 0
-143 -149 29 0
133 154 144 0
-136 141 -162 0
33 -9 60 0
-59 127 71 0
-44 103 -149 0
-129 -16 -121 0
-110 -156 97 0
-41 56 -21 0
-164 -192 187 0
69 -104 -1 0
155 65 -151 0
170 -41 -16 0
-14 80 -148 0
85 83 -197 0
57 1 -26 0
-125 8 89 0
-122 81 -63 0
-76 175 -43 0
197 123 90 0
163 -141 46 0
-146 21 -69 0
30 130 -158 0
-137 -87 -66 0
-142 146 62 0
46 121 156 0
-132 -21 17 0
-31 108 137 0
-199 195 31 0
-119 82 54 0
125 -15 -85 0
-71 63 169 0
-183 -101 -116 0
172 -131 33 0
37 185 -137 0
11 155 -85 0
76 -33 154 0
76 36 106 0
32 -52 41 0
45 -162 -120 0
80 4 -182 0
-198 33 -192 0
157 -18 -104 0
-151 57 72 0
-80 -102 -65 0
-48 -15 121 0
182 39 16 0
161 -199 -99 0
-172 119 21 0
-125 107 -49 0
-130 27 184 0
-38 32 189 0
-108 -117 58 0
49 -166 -27 0
-21 109 -168 0
-189 -97 6 0
120 -187 177 0
-158 -110 -31 0
47 -60 71 0
113 135 129 0
-173 -84 59 0
-58 165 -40 0
-178 150 169 0
-144 163 -151 0
-182 63 -199 0
159 130 156 0
-132 12 197 0
4 159 -73 0
180 -28 -126 0
-150 68 145 0
-176 99 33 0
-107 143 42 0
-180 -5 98 0
112 65 -106 0
85 -124 38 0
101 84 -72 0
-145 150 -121 0
2 1 -72 0
-198 178 -93 0
-189 27 35 0
6 85 42 0
-185 145 -17 0
116 -190 4 0
-131 156 28 0
183 23 -32 0
81 -137 -27 0
-60 154 -177 0
75 158 -133 0
48 122 -121 0
-150 -57 -39 0
127 88 -36 0
121 90 169 0
-153 -174 -128 0
188 87 -36 0
-24 -196 155 0
-69 183 -155 0
44 -192 97 0
-150 -76 -168 0
11 84 -179 0
165 -173 166 0
162 87 181 0
-3 -21 -2 0
-165 43 -97 0
79 116 25 0
97 -178 -98 0
-176 -185 157 0
121 184 -2 0
-181 -28 -199 0
72 160 127 0
161 127 -108 0
137 104 -125 0
117 -62 -195 0
-12 70 122 0
99 -176 -108 0
43 -195 -77 0
-172 116 -188 0
75 -10 97 0
135 115 9 0
105 171 6 0
-39 -123 179 0
-66 49 37 0
-10 -200 -198 0
100 87 -153 0
87 -72 199 0
55 -112 -3 0
50 -199 77 0
177 170 57 0
147 -180 149 0
-116 -161 -10 0
140 -189 183 0
-155 170 -188 0
65 -22 180 0
77 -109 53 0
138 178 -187 0
-71 -50 11 0
192 112 -106 0
-10 86 -80 0
