p cnf 150 639
-109 -120 69 0
-122 -49 -93 0
-126 -128 68 0
-116 -62 -96 0
86 141 79 0
149 121 32 0
-21 -52 16 0
148 32 -39 0
-146 108 150 0
10 -55 -20 0
-11 -83 -101 0
123 -96 60 0
-44 14 -35 0
-126 65 -123 0
-104 51 75 0
-43 33 -36 0
-131 111 86 0
-71 -113 96 0
-84 -124 -127 0
118 77 53 0
78 -82 -53 0
18 -85 127 0
-118 -41 -13 0
49 98 96 0
-66 51 52 0
-118 2 134 0
-70 59 -149 0
16 -18 -5 0
122 -67 50 0
-1 -28 -135 0
-107 -30 -55 0
-63 95 -115 0
129 -20 26 0
49 77 118 0
106 74 -42 0
-83 73 107 0
-32 -60 -88 0
-44 37 -64 0
-22 114 64 0
16 88 -67 0
-107 -13 -64 0
-14 114 148 0
87 -35 20 0
46 -1 44 0
-103 -18 99 0
-65 -22 136 0
50 56 -51 0
-36 -133 -88 0
-85 111 -82 0
96 122 141 0
78 -46 44 0
-27 -73 41 0
29 75 -73 0
-93 -102 148 0
44 -106 -83 0
8 28 116 0
130 -78 -79 0
134 101 104 0
139 -38 119 0
-99 -118 -84 0
80 -70 148 0
-39 -30 144 0
-16 133 81 0
137 -44 -61 0
-4 -33 -38 0
102 45 101 0
41 -3 -36 0
-65 41 62 0
115 -122 -99 0
-51 -138 127 0
102 -121 -78 0
128 125 35 0
75 14 6 0
-95 -19 -5 0
-127 -38 73 0
71 -47 111 0
137 -54 -46 0
60 149 -142 0
-27 -142 44 0
-98 50 -43 0
-133 -6 123 0
-47 60 -91 0
-21 134 95 0
-110 -149 48 0
80 -120 -15 0
1 -127 -123 0
-77 -145 -73 0
103 -51 -89 0
107 -33 -19 0
-149 -92 -19 0
92 72 44 0
-26 -51 -49 0
-90 76 -25 0
-29 26 7 0
-59 -110 103 0
86 8 -65 0
37 -61 67 0
-129 120 -11 0
45 -56 140 0
135 -146 -59 0
82 36 -31 0
-149 109 -63 0
-19 -23 79 0
-27 5 137 0
-111 -86 149 0
-61 137 -25 0
-77 -141 -96 0
34 18 129 0
140 -23 -115 0
17 109 -141 0
50 -48 17 0
-3 54 -33 0
-127 66 55 0
12 106 93 0
102 1 17 0
61 -87 -94 0
-35 -13 -121 0
33 -60 -92 0
34 -22 -126 0
144 -150 -142 0
117 126 109 0
17 -56 129 0
-55 -138 -22 0
-42 11 72 0
30 -65 -82 0
22 -117 -58 0
-8 -128 -149 0
11 64 28 0
85 -50 -146 0
62 -101 -36 0
49 61 -150 0
65 8 106 0
-117 -3 -36 0
20 -91 51 0
-89 -92 -90 0
69 -73 -10 0
-106 -117 -120 0
-43 35 28 0
36 -3 71 0
18 32 45 0
-126 138 -4 0
6 80 -142 0
-66 70 39 0
-128 16 67 0
5 -31 129 0
-41 -84 -119 0
58 8 119 0
-109 -136 -145 0
-66 16 -55 0
-59 132 -26 0
129 -147 37 0
-120 6 -73 0
-50 -16 24 0
-35 -64 -22 0
-96 25 131 0
21 122 -15 0
-118 70 -51 0
-121 -76 -8 0
85 54 -98 0
40 53 32 0
-18 30 7 0
-27 64 -103 0
93 -33 46 0
-109 113 63 0
-68 35 -81 0
-28 81 -147 0
106 -22 137 0
-113 82 138 0
95 -16 -137 0
-80 9 47 0
-95 -59 -90 0
-86 44 -131 0
-127 -81 -12 0
150 -116 -55 0
34 -92 47 0
-124 65 74 0
63 -9 79 0
-3 -99 146 0
77 -140 112 0
94 54 -128 0
-144 91 -75 0
-36 32 6 0
-93 -65 91 0
-112 -16 -147 0
57 37 65 0
-35 93 27 0
101 15 -56 0
-150 -77 -64 0
67 -69 40 0
-63 110 -24 0
146 -107 -68 0
-91 117 -130 0
-28 -127 -74 0
113 -28 -136 0
72 -7 42 0
34 122 -100 0
8 -71 11 0
94 26 -21 0
32 5 -90 0
34 -137 42 0
-87 -92 -44 0
35 -114 108 0
54 -82 -68 0
-117 -50 35 0
108 -149 48 0
4 36 98 0
-66 -50 65 0
146 98 88 0
92 122 64 0
144 146 50 0
146 93 14 0
-116 -59 -27 0
-71 22 -80 0
-41 -117 -96 0
-135 39 -106 0
121 -39 45 0
-41 -32 134 0
-47 -63 83 0
-54 -20 -84 0
133 119 -90 0
8 -51 -43 0
-138 -15 112 0
18 -120 -87 0
32 -57 -7 0
-127 90 133 0
-139 -87 2 0
-86 -12 76 0
-64 -101 106 0
-46 129 -110 0
74 -35 11 0
-142 -70 -83 0
103 38 -28 0
-76 52 -147 0
-97 115 -66 0
-144 -108 -145 0
93 -137 -81 0
-23 -14 102 0
-39 -110 -75 0
-149 116 138 0
14 19 -41 0
-111 -69 -92 0
-67 64 113 0
11 124 -52 0
-115 96 101 0
-36 -13 57 0
54 88 -128 0
-48 19 -40 0
-88 118 -130 0
-95 60 -37 0
-98 -6 -2 0
86 -126 138 0
-53 8 -52 0
-63 104 -87 0
-112 -138 -69 0
-114 -113 8 0
-7 128 70 0
62 64 114 0
-21 125 80 0
113 -22 98 0
-48 -21 -92 0
-2 -84 66 0
32 -135 39 0
18 71 44 0
-17 -65 -28 0
-45 -108 54 0
-42 -35 -53 0
135 -41 32 0
-32 55 -36 0
131 -67 90 0
-94 69 -29 0
100 -2 -76 0
148 -22 26 0
-113 -103 -126 0
-103 96 -122 0
-124 101 -12 0
88 -36 -112 0
19 -126 -94 0
-127 -136 -35 0
-120 93 77 0
-20 142 -93 0
-138 120 -60 0
-9 16 98 0
111 52 -150 0
66 -64 15 0
-146 62 6 0
131 68 -6 0
88 134 128 0
40 146 101 0
118 -65 89 0
-19 116 -147 0
23 62 85 0
-111 -64 -53 0
-91 138 -112 0
-37 -84 -100 0
150 -29 -111 0
-79 121 108 0
138 -73 -36 0
125 -118 -49 0
13 -24 -2 0
-127 -20 15 0
-33 -3 49 0
-33 -32 -94 0
-91 -98 -44 0
107 47 39 0
-56 61 -55 0
74 49 -34 0
24 -71 4 0
-135 -73 17 0
73 -136 77 0
-72 -95 4 0
64 -48 -132 0
145 120 7 0
-52 23 7 0
-143 -45 61 0
-34 126 122 0
88 66 113 0
122 -58 87 0
-120 25 47 0
-64 -149 -56 0
-69 -46 -119 0
89 16 -26 0
64 146 -13 0
139 85 130 0
49 56 -145 0
-12 -57 116 0
-114 -89 63 0
23 -74 47 0
-48 -46 -9 0
84 23 12 0
101 65 56 0
-42 145 108 0
-2 15 -119 0
114 102 -129 0
130 115 140 0
-56 49 139 0
12 -16 109 0
-109 122 115 0
106 -31 -123 0
8 62 75 0
48 -74 -97 0
-106 -136 73 0
106 52 86 0
18 -132 -94 0
102 -146 99 0
-149 105 -84 0
-59 57 -115 0
102 70 133 0
41 -48 33 0
123 95 51 0
106 12 70 0
-55 15 -48 0
57 -125 40 0
52 -93 39 0
40 -43 -95 0
-79 -146 101 0
-111 -85 51 0
55 -76 128 0
113 130 -40 0
97 -80 -144 0
-145 -80 -54 0
92 -5 136 0
110 43 147 0
38 -54 37 0
-63 -78 -106 0
-43 122 15 0
62 65 111 0
-77 -99 -23 0
-102 44 -129 0
134 121 -44 0
-66 -5 -63 0
-93 -22 134 0
23 -59 -77 0
-59 -61 26 0
149 -49 -69 0
-53 -127 -64 0
24 41 -8 0
94 47 -8 0
94 39 -56 0
102 56 -18 0
21 43 -125 0
110 124 -48 0
-5 63 -26 0
103 148 4 0
149 21 -119 0
-55 -45 76 0
56 -131 124 0
-127 78 -112 0
15 142 -116 0
48 -9 -66 0
-134 3 -140 0
-146 30 46 0
-4 -7 96 0
68 -20 -140 0
48 116 -99 0
42 23 -57 0
-75 -43 136 0
99 -127 7 0
-130 29 -111 0
-138 106 35 0
86 49 130 0
114 60 -5 0
22 -124 87 0
4 -93 -51 0
16 -88 8 0
67 129 -82 0
-115 -16 60 0
-126 -13 -2 0
-116 -101 70 0
131 -60 83 0
42 -114 43 0
-36 141 -48 0
61 34 3 0
50 66 8 0
8 19 11 0
-81 -17 -121 0
122 -20 23 0
91 -113 146 0
-50 -23 42 0
15 115 -7 0
64 139 134 0
71 -86 105 0
-107 19 -150 0
8 25 124 0
109 -79 -85 0
-120 -11 -34 0
65 -90 59 0
-118 -35 83 0
91 -47 137 0
61 -93 -129 0
-49 -56 -87 0
-42 -66 -8 0
-103 -109 51 0
99 74 137 0
150 -143 -60 0
-89 -34 -62 0
-117 104 43 0
-58 -61 -80 0
15 27 -106 0
30 68 35 0
88 46 -107 0
-143 108 47 0
73 -71 69 0
-79 -53 70 0
27 -120 87 0
-146 86 -123 0
142 -137 77 0
-61 130 -29 0
-32 -105 70 0
65 -100 -74 0
114 45 65 0
-136 -127 96 0
62 -1 16 0
-20 136 -57 0
-61 -13 -87 0
-67 84 -51 0
-36 -65 104 0
-123 137 -99 0
19 69 -107 0
100 -30 -7 0
-63 -115 80 0
-17 -133 126 0
87 -3 109 0
90 -149 3 0
36 49 21 0
14 -48 -124 0
-107 131 59 0
142 -101 -21 0
-37 -96 -10 0
116 -130 -67 0
-74 22 72 0
122 -58 -126 0
-109 18 -91 0
-83 -70 -117 0
55 126 129 0
128 -123 -148 0
54 100 -114 0
-26 -11 -95 0
138 27 -82 0
146 -15 -61 0
-35 -136 -92 0
-99 109 4 0
-120 101 5 0
44 23 15 0
-36 98 80 0
6 34 -72 0
60 83 -104 0
-63 -121 117 0
-115 107 -93 0
-125 -65 144 0
40 -85 -20 0
142 -75 -108 0
-22 -126 -84 0
-45 -71 145 0
42 -54 -102 0
145 14 -37 0
69 -10 -113 0
-88 147 22 0
-82 -121 57 0
-52 124 -97 0
107 19 80 0
70 16 -131 0
53 -68 105 0
127 49 115 0
-90 49 56 0
-17 -124 22 0
63 -52 60 0
23 -136 -78 0
-14 -47 5 0
121 142 -139 0
-9 149 -62 0
-106 128 -118 0
88 117 97 0
-15 -54 -65 0
-65 -52 92 0
-13 -36 98 0
-61 -13 138 0
64 -49 -22 0
80 -134 81 0
37 97 -65 0
4 99 -113 0
-32 77 79 0
-108 -74 144 0
35 117 -149 0
14 112 146 0
43 -9 -41 0
130 53 117 0
-47 -138 -68 0
-22 77 -92 0
150 -18 -71 0
76 77 111 0
150 -2 8 0
40 135 97 0
-3 -18 -129 0
-89 12 32 0
12 -59 -109 0
-12 33 -129 0
-20 119 -124 0
62 70 109 0
-57 -77 4 0
23 99 69 0
-89 -74 -46 0
-52 33 -144 0
-87 24 -91 0
134 -131 18 0
-84 94 107 0
-144 -150 78 0
62 100 -65 0
-95 81 -31 0
57 54 86 0
96 20 131 0
-33 21 -38 0
-80 -143 -100 0
-147 130 105 0
58 -15 89 0
-53 -100 147 0
89 145 21 0
31 -35 -124 0
3 -29 -125 0
-24 147 -129 0
-5 135 93 0
108 39 45 0
121 53 -91 0
75 43 -134 0
-3 10 56 0
-56 33 79 0
98 -53 -84 0
-106 -21 30 0
-63 139 -1 0
-150 85 130 0
18 -144 -86 0
-17 27 -25 0
-120 125 8 0
99 -101 -59 0
123 45 130 0
84 149 132 0
-126 -13 -45 0
8 58 -126 0
-28 -52 40 0
115 85 -107 0
13 -64 -14 0
-117 -18 33 0
-73 -75 139 0
-130 -61 -129 0
19 84 31 0
69 -148 23 0
-91 113 -106 0
43 -35 100 0
-69 -145 -7 0
-144 68 -149 0
66 -82 118 0
-102 -20 61 0
-88 -5 9 0
-95 -89 103 0
-54 -145 -94 0
-99 4 30 0
118 -8 107 0
-59 105 9 0
-113 35 -1 0
-58 55 141 0
3 148 -110 0
114 42 5 0
-65 129 58 0
-1 -118 26 0
-84 -126 -74 0
126 123 9 0
63 -20 -101 0
-88 -70 109 0
-62 -13 -91 0
15 42 -85 0
46 109 108 0
-131 -13 9 0
24 76 -99 0
4 -11 7 0
-9 -116 54 0
-113 60 -80 0
-147 60 9 0
-148 136 82 0
57 37 28 0
139 65 45 0
-150 -11 -51 0
4 -148 76 0
47 -81 -145 0
10 -59 36 0
-108 120 -100 0
-43 -135 -148 0
-52 -80 -5 0
-121 141 -56 0
50 6 136 0
-146 53 -115 0
-63 131 43 0
-80 144 21 0
-27 20 121 0
115 -104 -116 0
-144 -142 35 0
40 136 114 0
-129 48 61 0
-97 113 -126 0
-44 69 121 0
-120 17 -49 0
