p cnf 200 852
147 -103 -31 0
12 -112 153 0
-58 -5 -191 0
131 123 136 0
-69 -80 8 0
95 182 -19 0
142 -131 -33 0
31 -114 38 0
-166 -199 194 0
196 -27 154 0
-2 134 -164 0
8 56 53 0
-115 52 101 0
-45 47 -100 0
191 -2 160 0
-165 -101 21 0
-131 -39 56 0
-122 121 33 0
-166 18 143 0
124 -81 -168 0
123 -43 -176 0
138 -26 -141 0
-33 196 153 0
-107 151 143 0
-66 180 -166 0
-108 162 143 0
-80 -105 143 0
191 21 25 0
-87 -81 -51 0
177 28 174 0
169 -134 -143 0
154 -160 13 0
-6 -148 -144 0
46 -47 -135 0
-36 31 -90 0
135 -79 32 0
61 -33 42 0
154 24 132 0
117 179 128 0
-123 -30 75 0
-53 -116 136 0
-163 -185 105 0
55 -31 -192 0
-183 -157 45 0
188 59 -150 0
10 -11 13 0
-30 93 -97 0
-84 111 133 0
-149 -162 -156 0
68 137 173 0
3 -93 -127 0
51 -16 -92 0
-114 38 34 0
200 -25 -69 0
-65 87 -139 0
-110 -2 -74 0
194 11 -160 0
-127 -119 -44 0
130 117 90 0
196 -181 -176 0
-78 -139 -95 0
36 -184 -84 0
96 -132 150 0
-27 195 8 0
-119 -44 -140 0
24 137 -145 0
72 89 -52 0
135 190 -94 0
20 -183 21 0
-184 -119 189 0
192 64 71 0
-177 -43 -131 0
-97 82 -30 0
92 178 194 0
98 -32 -160 0
-67 -17 -123 0
188 171 87 0
153 68 149 0
95 132 168 0
-21 -106 197 0
17 -39 181 0
122 56 -142 0
-25 -55 -7 0
124 19 -171 0
-56 38 111 0
161 49 108 0
197 -77 42 0
46 27 160 0
20 104 -165 0
-159 105 -134 0
34 -51 163 0
-139 181 78 0
-96 37 4 0
-96 -80 174 0
98 22 121 0
102 109 -160 0
-73 72 -158 0
119 -40 -91 0
-81 -176 184 0
-2 88 -151 0
149 189 -36 0
-32 -59 181 0
-58 27 184 0
135 -88 9 0
85 158 10 0
23 92 -82 0
-182 197 -141 0
10 -4 130 0
-189 45 -157 0
-29 200 -137 0
-118 156 -140 0
129 -36 -126 0
-134 -99 -91 0
-192 188 150 0
92 -135 -47 0
4 -49 -161 0
124 -185 -61 0
-83 117 -161 0
-184 189 46 0
-108 165 151 0
-183 -141 -38 0
179 70 -34 0
-11 23 192 0
26 -134 190 0
-161 128 98 0
-45 38 -148 0
-128 80 -42 0
23 -198 -179 0
-139 14 108 0
52 -119 36 0
-196 -183 -185 0
189 -144 42 0
-42 94 -97 0
21 117 82 0
56 -9 132 0
59 -8 10 0
-162 151 -187 0
65 -66 -57 0
-36 65 148 0
-100 -32 -50 0
97 51 -145 0
-87 112 -81 0
-145 -19 24 0
162 -183 148 0
-123 -36 -79 0
200 -127 -91 0
-118 51 63 0
158 138 180 0
-113 -122 -116 0
-44 -19 164 0
53 181 114 0
135 52 116 0
17 -101 -199 0
-84 -18 -121 0
-113 -60 -57 0
14 48 30 0
-158 -153 134 0
179 114 36 0
-76 -66 190 0
-113 -31 45 0
41 200 87 0
-121 40 -58 0
71 -69 66 0
-170 -115 73 0
87 66 -136 0
-85 -196 40 0
-158 -59 -14 0
42 51 187 0
-171 43 -133 0
63 39 13 0
194 97 -44 0
14 -151 132 0
-23 -17 -58 0
125 163 -16 0
125 -68 -159 0
-192 177 -59 0
185 95 58 0
-186 119 165 0
-57 143 183 0
107 1 197 0
200 -7 -109 0
155 -8 99 0
-192 26 -118 0
5 -83 63 0
46 33 148 0
-29 147 136 0
22 -50 59 0
26 -180 181 0
14 97 47 0
-187 19 -53 0
-70 -132 116 0
121 -119 -19 0
-175 -150 -63 0
3 116 -161 0
-55 23 -99 0
-142 83 145 0
-157 18 92 0
24 -5 3 0
-84 138 11 0
-57 -126 117 0
-176 164 -158 0
134 158 185 0
133 87 -132 0
180 59 -168 0
-59 -57 138 0
49 65 -194 0
-148 158 -172 0
-108 -187 -200 0
108 -48 29 0
-155 110 73 0
-97 -128 156 0
-73 -40 132 0
176 151 -166 0
16 -20 -190 0
4 -26 46 0
66 162 75 0
-147 -115 59 0
148 161 180 0
52 59 156 0
-54 -156 173 0
-191 -137 -67 0
24 84 99 0
-61 1 -60 0
-188 11 -180 0
-168 13 53 0
-147 148 -86 0
42 -75 -58 0
-87 -4 182 0
-180 -171 -76 0
-93 108 -152 0
103 90 72 0
79 63 77 0
163 63 -40 0
158 -154 98 0
-166 109 -31 0
117 185 -3 0
-196 -90 7 0
198 119 -34 0
-79 -151 -12 0
-124 -106 -156 0
29 169 -108 0
-125 65 58 0
-118 122 -126 0
-94 31 12 0
-129 140 -124 0
123 -67 171 0
56 -21 99 0
-123 -11 -111 0
186 -95 90 0
39 142 159 0
-86 -62 -105 0
-3 42 143 0
74 -94 -82 0
188 -125 197 0
-56 147 -171 0
-113 -5 152 0
36 181 156 0
1 -130 84 0
-188 -106 -199 0
-123 79 196 0
-143 -130 -122 0
-110 -139 -141 0
185 -70 149 0
-94 -113 -180 0
-144 152 78 0
-56 -87 -187 0
199 135 108 0
126 -144 -141 0
112 117 98 0
162 -164 -7 0
159 61 -155 0
197 -72 81 0
73 -77 -79 0
-59 120 33 0
39 78 -58 0
176 -169 -6 0
52 -15 8 0
129 -74 -101 0
-88 98 65 0
-172 137 30 0
154 119 -180 0
-24 -147 -2 0
-118 -154 -188 0
-91 -23 -96 0
-34 -96 -130 0
-197 -192 15 0
-120 -42 84 0
19 -71 28 0
-104 -90 114 0
138 87 23 0
161 34 134 0
155 12 -45 0
-97 -144 -39 0
-16 -141 181 0
128 164 150 0
-35 152 -23 0
-139 99 59 0
-102 -152 164 0
-28 -43 -74 0
-139 -191 -100 0
-63 -103 107 0
-73 30 27 0
-33 59 -19 0
46 -177 198 0
-79 -102 -175 0
-140 -115 82 0
-138 -107 61 0
-10 -83 -123 0
40 -99 -142 0
183 -69 131 0
14 -101 181 0
169 -55 84 0
10 1 -159 0
34 -72 -134 0
22 -21 80 0
-60 -55 -77 0
-84 -105 151 0
58 -133 -177 0
-111 -68 -108 0
-4 180 -130 0
40 140 -43 0
49 37 -58 0
130 -165 -43 0
22 -25 195 0
-134 186 -70 0
-2 100 -122 0
25 -147 157 0
-170 -28 -18 0
191 -38 -134 0
96 -190 -101 0
-168 2 -167 0
-174 -117 3 0
-197 10 77 0
-85 106 -18 0
-145 -149 124 0
65 -125 172 0
160 152 75 0
-34 179 -31 0
-161 93 -180 0
-123 10 27 0
139 78 114 0
-31 -82 -28 0
-178 -40 185 0
7 -32 48 0
2 154 -27 0
176 65 -3 0
178 -83 197 0
-96 88 41 0
-103 35 -153 0
124 -11 -137 0
142 34 91 0
-199 13 22 0
74 -11 4 0
13 97 -7 0
65 67 50 0
-146 -89 108 0
-130 -43 124 0
-12 114 36 0
-85 -160 -155 0
-135 108 -34 0
8 97 124 0
-134 61 87 0
-21 -153 -155 0
-108 36 167 0
-183 8 -36 0
-141 197 -150 0
-63 198 -27 0
-150 -118 146 0
16 112 162 0
-91 27 115 0
76 100 139 0
-155 73 -117 0
169 -170 -157 0
30 -167 126 0
148 -65 -118 0
-58 59 184 0
56 -75 -165 0
-99 127 20 0
-96 -184 -123 0
54 66 -17 0
-43 150 13 0
10 20 196 0
187 44 -104 0
86 -128 -8 0
-64 -106 -44 0
161 -169 190 0
23 96 -150 0
-21 75 151 0
21 103 28 0
29 -71 126 0
-187 4 -108 0
179 112 165 0
-33 149 143 0
164 98 133 0
-35 187 -194 0
-183 30 20 0
-195 -50 -10 0
89 -134 -166 0
2 148 -69 0
142 -107 -150 0
-23 -112 -174 0
-21 69 -187 0
154 160 198 0
-191 161 4 0
-187 110 52 0
-163 96 104 0
-9 -152 84 0
-167 82 2 0
83 191 98 0
-37 -172 -155 0
-142 -129 -182 0
78 -158 171 0
-77 152 17 0
98 -5 89 0
-173 -71 -155 0
-4 -56 11 0
-69 -182 149 0
-154 17 82 0
-144 -78 51 0
173 -2 121 0
181 -90 -49 0
-32 -15 -172 0
-13 -38 189 0
169 96 -149 0
78 101 105 0
64 35 -92 0
131 -124 66 0
-19 -180 -132 0
156 129 -176 0
13 103 112 0
144 93 -58 0
110 177 -116 0
-169 2 14 0
166 112 -121 0
-106 130 -198 0
-36 -197 132 0
80 33 95 0
-44 -142 -111 0
-123 81 -127 0
152 70 75 0
-129 172 95 0
-197 -110 -40 0
88 -40 -126 0
-83 -92 -40 0
21 -128 182 0
101 -110 162 0
-172 -162 52 0
190 -94 -147 0
-118 120 -166 0
-199 -9 193 0
-54 198 193 0
-108 -193 -85 0
81 -144 -88 0
-34 64 -68 0
-22 -31 155 0
-54 110 -160 0
-73 66 -117 0
-42 171 12 0
-195 45 -124 0
-172 45 28 0
-195 123 -183 0
-135 -102 101 0
-155 64 -142 0
-151 -36 -119 0
-135 149 -91 0
148 -1 164 0
-25 44 -151 0
153 -27 189 0
-20 64 -124 0
-32 25 6 0
44 -127 132 0
188 -181 -17 0
-172 129 -179 0
140 -115 -173 0
-70 28 -89 0
-175 -185 -176 0
120 -105 -33 0
-116 43 -193 0
167 -19 -178 0
-123 -22 15 0
125 -137 -112 0
176 76 -116 0
52 135 136 0
138 106 194 0
-140 -114 -24 0
18 -58 22 0
-21 -85 33 0
-156 -1 -72 0
-190 36 152 0
31 -174 -100 0
88 -22 -174 0
-145 -20 -50 0
-154 -133 -22 0
26 -31 180 0
68 136 -190 0
184 161 105 0
126 -30 -33 0
-55 -182 -155 0
-136 -137 -124 0
71 -51 -127 0
55 112 190 0
186 94 107 0
-163 -177 131 0
52 88 190 0
171 3 137 0
-96 59 -90 0
-197 -117 116 0
-120 28 -97 0
166 125 -132 0
181 193 121 0
-183 34 -49 0
43 -185 -145 0
-114 200 -13 0
31 16 24 0
56 -57 22 0
156 120 166 0
-163 -110 -171 0
-168 78 39 0
-57 115 131 0
110 -108 -124 0
-137 -105 -142 0
-52 144 -50 0
-68 -171 -92 0
-114 63 -162 0
167 26 -107 0
122 -179 -25 0
42 -187 159 0
-33 -80 -167 0
-121 -39 -28 0
-97 -61 37 0
-96 -131 -183 0
-131 -34 17 0
55 -129 -30 0
65 -159 191 0
-59 52 -28 0
-107 -199 180 0
66 -129 -155 0
-75 96 161 0
-21 184 -200 0
-91 -55 -147 0
-120 -68 186 0
111 69 31 0
-170 -2 30 0
169 43 -150 0
191 22 -8 0
97 101 156 0
4 -154 -162 0
27 -46 181 0
191 -7 -196 0
-56 86 -35 0
35 -139 -189 0
-167 125 144 0
52 187 -14 0
-148 133 134 0
-2 -5 72 0
-37 182 78 0
117 -108 -92 0
55 190 52 0
27 108 -82 0
-176 14 -104 0
-90 35 -115 0
179 124 -71 0
-198 -109 164 0
-35 69 -154 0
-106 -127 22 0
-77 117 139 0
172 -61 -176 0
-128 -104 25 0
-123 -1 -110 0
166 -99 102 0
-36 -56 119 0
-24 68 177 0
-160 132 -51 0
-68 117 77 0
75 5 -72 0
136 -190 -132 0
171 -20 21 0
191 -3 -41 0
93 -43 134 0
-73 108 59 0
20 158 -195 0
-19 127 -38 0
-58 -164 22 0
-175 -172 28 0
162 -112 40 0
110 -119 -29 0
-20 -112 -128 0
-9 -40 -27 0
-104 61 44 0
96 134 160 0
-179 97 77 0
100 -108 -64 0
-57 199 43 0
121 127 -60 0
-61 54 -82 0
122 -165 185 0
160 -82 143 0
130 168 -97 0
167 -142 187 0
-100 -108 54 0
137 -142 69 0
-19 -120 147 0
-178 71 -156 0
14 56 81 0
141 7 40 0
-142 -23 124 0
171 157 89 0
-80 -117 15 0
-103 173 28 0
-72 67 -164 0
-195 78 -192 0
128 -70 -148 0
-92 141 59 0
-130 52 194 0
-195 17 -28 0
96 -9 -109 0
-110 -64 65 0
-105 -181 -10 0
-46 -80 121 0
-37 -43 158 0
-6 -161 183 0
147 -45 -175 0
-52 -187 -194 0
-183 16 -191 0
58 42 123 0
-96 -170 -13 0
-24 -138 -20 0
37 79 178 0
-152 -2 87 0
153 167 124 0
-20 15 -28 0
88 -93 90 0
55 45 -18 0
-173 -4 27 0
184 89 185 0
-38 154 121 0
35 147 66 0
148 192 121 0
-79 134 -55 0
94 -127 42 0
175 -36 165 0
99 90 198 0
35 64 -73 0
52 140 -157 0
-111 98 -184 0
-180 129 -40 0
-166 -40 164 0
123 -63 -191 0
-137 -17 90 0
-129 -197 -66 0
-71 -126 110 0
140 -120 34 0
171 -151 38 0
148 -59 -58 0
49 104 22 0
154 191 157 0
139 -176 -40 0
-155 -69 -161 0
150 83 191 0
-162 142 -155 0
23 151 -48 0
-184 -43 -142 0
42 23 117 0
-157 165 131 0
147 33 -190 0
18 -134 -120 0
16 19 4 0
-36 35 -177 0
68 98 192 0
8 194 69 0
173 33 65 0
-127 -53 -157 0
88 12 -102 0
104 196 -178 0
98 187 147 0
-8 -157 -143 0
-140 -51 -177 0
49 146 87 0
77 25 49 0
-67 117 -65 0
68 49 -135 0
-150 -1 187 0
-169 -54 -107 0
-30 161 15 0
-89 -67 -155 0
72 -120 -29 0
-169 -199 41 0
86 83 -31 0
168 183 96 0
-144 -155 -48 0
79 -117 -98 0
-146 151 48 0
-26 -166 -12 0
74 -110 31 0
81 -146 -151 0
-115 -164 -131 0
-144 140 168 0
143 -151 101 0
-113 29 133 0
129 181 22 0
-194 139 -15 0
152 -20 -112 0
165 -163 140 0
-100 -44 -69 0
-197 25 -24 0
-50 185 136 0
-10 100 -163 0
168 -88 128 0
-34 -52 135 0
6 4 -104 0
183 36 34 0
195 33 39 0
161 149 68 0
66 -178 151 0
-162 -191 -147 0
159 167 -80 0
-89 145 -44 0
199 -31 60 0
-125 -59 -39 0
-43 145 -23 0
-171 39 112 0
-102 -192 187 0
-199 5 -102 0
161 -164 82 0
-30 62 -198 0
86 -121 -161 0
-43 114 167 0
-109 106 43 0
-189 18 195 0
90 101 84 0
51 -44 -1 0
-120 -28 179 0
192 9 -126 0
128 30 160 0
100 -11 -136 0
-36 29 173 0
-101 91 -170 0
94 -45 157 0
111 -127 61 0
-45 -146 -49 0
-87 194 24 0
-133 190 -97 0
112 75 -157 0
37 -114 134 0
-45 -80 78 0
-53 27 128 0
-21 -90 166 0
-125 168 23 0
-47 -67 129 0
17 -167 -91 0
49 -151 97 0
140 49 -18 0
-51 -176 -166 0
106 -151 -154 0
-32 50 -48 0
55 -196 -126 0
-132 -13 68 0
-164 -74 38 0
-53 145 -2 0
-46 7 3 0
94 -117 59 0
-85 -104 118 0
132 9 108 0
-121 5 88 0
50 81 63 0
109 -124 -21 0
86 124 187 0
159 41 -124 0
51 124 -145 0
-144 -10 -68 0
94 -110 -118 0
-191 -77 -171 0
31 171 -36 0
9 -88 56 0
-92 183 -194 0
-8 75 1 0
-90 182 22 0
-77 146 -71 0
61 -192 -20 0
-106 3 27 0
-33 48 -113 0
-177 -196 84 0
-120 -80 -184 0
-104 54 41 0
-6 58 37 0
123 -132 -183 0
58 181 33 0
21 -76 -132 0
177 127 117 0
-149 -119 155 0
199 -46 9 0
29 20 -66 0
-18 -143 59 0
-197 -98 -16 0
103 -51 32 0
-104 -126 63 0
-57 -112 -149 0
142 116 191 0
-69 -86 52 0
-24 160 -122 0
38 63 20 0
91 -178 -147 0
-5 41 -32 0
83 -64 143 0
-79 74 -107 0
-91 -163 -85 0
-102 87 -67 0
-200 -18 -136 0
81 149 87 0
77 139 -124 0
9 -101 169 0
-13 -158 -150 0
46 -179 -123 0
139 182 -138 0
124 -69 -55 0
-33 -69 -56 0
-132 -29 -200 0
-140 90 -60 0
-22 -141 -94 0
62 -72 120 0
200 116 -114 0
93 -163 -183 0
139 15 -100 0
141 122 155 0
165 197 -126 0
-128 -129 -42 0
141 -36 77 0
184 -197 114 0
-15 -156 -43 0
-106 162 -165 0
-128 -10 124 0
-135 -24 -88 0
-43 38 118 0
86 92 152 0
-68 157 188 0
-170 126 -59 0
-172 -24 -196 0
24 -27 -5 0
-60 173 -132 0
4 107 -50 0
64 -76 -69 0
-145 8 -46 0
46 16 118 0
168 -190 36 0
17 -29 -121 0
-115 -84 -31 0
-35 -164 168 0
198 66 136 0
-145 128 -142 0
-97 27 -156 0
-124 -190 19 0
-128 -89 -68 0
