p cnf 150 639
123 -67 94 0
116 -92 -46 0
77 -133 137 0
-108 -147 13 0
-27 29 81 0
60 140 89 0
-108 127 10 0
137 -3 -140 0
150 -58 67 0
-125 82 -131 0
77 89 97 0
139 -148 -39 0
36 72 83 0
-87 -121 136 0
-138 140 2 0
69 38 -119 0
-100 42 -131 0
-65 124 -107 0
56 -121 -7 0
-72 -121 -144 0
-106 -135 -25 0
-40 46 -147 0
-45 -58 -36 0
101 -48 -90 0
25 129 93 0
-139 -43 -82 0
-62 22 67 0
103 -58 -8 0
111 122 -49 0
-79 -115 149 0
-114 -26 -110 0
36 -24 50 0
-135 107 -45 0
99 75 -54 0
135 -138 -45 0
-140 -113 -46 0
102 120 55 0
5 142 76 0
-101 39 132 0
-104 -80 -13 0
128 73 -147 0
-62 -66 57 0
25 16 26 0
46 -37 135 0
-75 1 -137 0
-97 39 -42 0
27 1 131 0
107 12 16 0
108 -5 27 0
-131 28 98 0
19 7 -107 0
-82 121 57 0
-90 15 -46 0
135 -147 -50 0
-4 -118 20 0
119 44 -133 0
-7 89 8 0
-139 -87 -60 0
128 -21 66 0
-17 -44 -145 0
75 -149 46 0
-141 19 -92 0
-91 -36 -29 0
-31 41 -107 0
-84 -15 123 0
17 60 -76 0
-44 94 12 0
-102 -39 62 0
-13 60 124 0
-150 -69 40 0
135 5 49 0
-66 -25 -74 0
-12 132 82 0
-70 131 127 0
81 31 143 0
27 16 14 0
-60 146 28 0
65 3 8 0
130 -71 136 0
-54 -123 76 0
2 114 35 0
75 121 68 0
-1 50 -112 0
-92 -34 137 0
79 56 149 0
36 102 85 0
111 -108 144 0
26 -110 51 0
39 67 142 0
69 -41 132 0
92 -62 -94 0
-11 134 -138 0
144 -120 61 0
66 126 -78 0
52 -116 -119 0
11 148 107 0
100 87 -148 0
-25 9 52 0
-53 -103 139 0
14 133 -6 0
-81 110 -72 0
-42 -27 -129 0
-18 109 -148 0
47 -60 106 0
68 -138 -85 0
116 -29 -38 0
-141 -18 -142 0
-31 -43 -126 0
131 -94 -43 0
104 -7 136 0
144 -86 95 0
-72 55 -117 0
-95 145 -104 0
-112 -66 141 0
79 -1 2 0
114 95 -106 0
32 -14 109 0
125 -41 150 0
-144 129 85 0
-53 -69 -67 0
-39 -96 -30 0
-50 -106 -105 0
-115 94 -131 0
-63 -124 18 0
-37 -91 15 0
31 143 -83 0
-28 -122 75 0
-41 90 97 0
-52 -26 105 0
38 -123 -1 0
148 120 -27 0
3 -106 76 0
-7 -76 54 0
105 -119 -102 0
-113 9 -37 0
102 -60 -148 0
70 124 33 0
-120 132 41 0
6 -101 28 0
48 101 -17 0
-121 58 -24 0
15 111 99 0
-2 84 60 0
30 106 -145 0
129 -112 19 0
18 62 133 0
-30 58 -97 0
144 -99 76 0
29 81 -31 0
94 -128 -3 0
96 10 -144 0
-75 24 -33 0
-150 -140 112 0
102 39 103 0
48 86 -89 0
-115 93 -20 0
65 -86 56 0
-51 69 -65 0
-17 127 -109 0
107 23 102 0
111 86 -64 0
-67 -116 -11 0
-1 28 -70 0
-114 19 -143 0
-65 -64 -115 0
-31 35 -103 0
-64 3 -4 0
4 85 131 0
56 73 -7 0
29 -13 87 0
-133 -111 -10 0
-18 -25 106 0
-36 -20 -42 0
115 109 -67 0
-89 145 135 0
-118 -69 131 0
83 -20 45 0
-63 58 21 0
-107 -91 -127 0
-101 -91 -126 0
-55 -6 -74 0
-78 -61 129 0
26 -102 70 0
-145 83 49 0
-58 -6 -121 0
142 -126 99 0
-56 -146 94 0
65 -83 140 0
-83 130 -52 0
133 -57 95 0
-37 -122 -132 0
32 45 4 0
-51 -46 -95 0
118 112 42 0
45 121 -88 0
-89 -87 -121 0
-9 42 -35 0
128 -21 7 0
-5 -35 99 0
58 -94 -55 0
73 64 -19 0
-32 -136 -111 0
147 13 -109 0
-121 -124 35 0
-16 -76 1 0
120 -143 -45 0
-115 -121 -122 0
49 73 37 0
34 -35 68 0
116 47 -117 0
-13 -43 -28 0
-48 24 26 0
9 59 -97 0
-137 -126 139 0
5 -74 -119 0
-144 -64 95 0
-122 -15 -99 0
46 -135 88 0
82 80 -105 0
-122 75 106 0
-18 134 -146 0
21 -58 -147 0
-84 150 -35 0
86 -113 -45 0
14 23 -72 0
-36 -103 51 0
-91 -75 -145 0
-146 -22 -123 0
-35 -6 12 0
8 -25 -66 0
15 102 47 0
-88 -28 -65 0
145 -102 -114 0
4 131 -3 0
132 -124 47 0
76 -101 -109 0
-133 51 12 0
119 -40 -85 0
66 -53 61 0
115 124 -128 0
-34 100 86 0
-18 -3 -77 0
-66 1 -121 0
-47 131 -8 0
-148 -10 124 0
106 -128 -70 0
-24 118 -31 0
-95 -100 -109 0
13 56 -40 0
-147 96 37 0
98 126 -53 0
24 -15 -128 0
77 -119 -99 0
19 -47 -97 0
53 -104 61 0
-113 86 -101 0
10 -150 82 0
103 56 5 0
-31 14 92 0
-131 -119 -15 0
-24 -53 94 0
122 64 -107 0
-42 82 149 0
16 -86 -93 0
-10 -122 -23 0
99 -25 -84 0
-123 -3 13 0
27 -55 33 0
68 108 -6 0
138 74 -20 0
18 -135 69 0
91 -106 -22 0
87 -143 41 0
-34 -140 -83 0
-112 50 2 0
46 58 -61 0
135 -128 27 0
-105 77 -125 0
128 69 106 0
39 134 -63 0
-141 91 -13 0
-81 -104 -80 0
-87 139 29 0
-1 -144 143 0
126 67 65 0
137 -141 -110 0
76 100 85 0
114 71 -147 0
-148 -38 40 0
-44 129 30 0
56 -125 75 0
74 81 -13 0
3 82 1 0
123 145 110 0
-125 116 61 0
137 -82 149 0
77 125 -60 0
-136 -135 -90 0
89 93 -116 0
138 -65 -68 0
100 -17 112 0
123 65 124 0
37 57 130 0
-19 -21 141 0
-96 127 -138 0
11 8 16 0
30 -113 59 0
-83 146 -18 0
-75 -105 33 0
35 -49 60 0
105 -87 61 0
-95 -121 -81 0
-6 147 102 0
-31 -104 -1 0
-84 -121 -130 0
-122 49 120 0
-121 -117 -57 0
112 99 -106 0
-128 -129 -84 0
-15 -75 72 0
-36 -103 -41 0
-7 -21 -5 0
38 -104 92 0
99 61 5 0
90 109 128 0
150 -142 114 0
-24 -142 -118 0
78 2 127 0
141 1 -94 0
-123 -37 -112 0
9 -117 -7 0
105 -107 -115 0
82 100 141 0
-47 124 -134 0
143 -40 -29 0
80 22 58 0
110 -50 145 0
-56 -9 -105 0
109 133 -32 0
109 87 106 0
90 145 -92 0
-84 75 -26 0
114 124 34 0
-85 137 -129 0
82 84 136 0
-75 93 121 0
-74 30 5 0
120 78 149 0
31 -110 -30 0
-112 23 60 0
92 -12 11 0
-78 9 142 0
-104 147 -10 0
79 62 -86 0
-130 11 -58 0
104 75 125 0
131 -25 125 0
17 -76 -48 0
-105 103 64 0
9 -67 -92 0
-5 -70 -141 0
127 43 -81 0
-29 -113 14 0
-19 -128 4 0
-102 105 -137 0
59 140 76 0
25 94 14 0
105 99 40 0
90 57 -108 0
-116 102 -45 0
-150 -91 -128 0
126 72 -94 0
130 116 31 0
-87 127 25 0
-98 -22 68 0
-107 86 10 0
48 111 -67 0
-37 107 74 0
-147 -30 -57 0
-66 130 -125 0
141 50 114 0
-43 -80 45 0
125 73 -31 0
70 1 44 0
73 40 -84 0
-37 111 40 0
32 93 -89 0
-70 -34 93 0
-95 103 -139 0
135 45 4 0
49 -53 -79 0
-55 -126 136 0
105 121 -41 0
33 115 -110 0
-130 -131 -32 0
-138 -115 118 0
-148 75 69 0
-107 126 -89 0
104 -105 -130 0
2 85 59 0
129 54 48 0
53 28 124 0
-11 54 142 0
82 25 132 0
3 -41 -64 0
-57 -129 -136 0
94 50 -19 0
-62 145 124 0
-67 23 -82 0
110 4 -129 0
91 -16 75 0
-45 37 -80 0
34 -38 -87 0
-38 -110 26 0
107 33 17 0
-123 149 128 0
-135 -17 -10 0
48 -109 136 0
-137 -55 -108 0
42 -30 75 0
-51 14 -135 0
51 149 -5 0
40 -7 -14 0
46 -102 -11 0
-73 127 -74 0
-134 137 136 0
-59 -137 31 0
-54 -45 35 0
84 -66 -10 0
64 -141 76 0
22 130 -138 0
117 -140 -14 0
-147 45 70 0
-134 62 -123 0
-94 5 72 0
127 -93 -10 0
-9 149 -14 0
-25 -20 -59 0
1 73 -50 0
108 149 68 0
-8 -24 52 0
-2 -112 43 0
-146 -54 20 0
99 103 59 0
141 40 49 0
115 31 -150 0
-12 -86 29 0
142 -19 -3 0
-106 113 60 0
58 -94 95 0
47 -68 29 0
48 135 97 0
84 -109 -6 0
94 115 113 0
12 95 121 0
127 90 -42 0
134 -135 -30 0
26 -123 28 0
67 42 -68 0
-80 94 79 0
-53 114 -20 0
-68 24 147 0
-83 -80 82 0
2 50 -66 0
-24 127 104 0
27 -53 10 0
-137 -57 -24 0
23 117 42 0
98 92 -109 0
-82 -75 -34 0
-113 142 39 0
-72 53 -70 0
-18 32 -65 0
102 -112 37 0
-59 -16 109 0
-19 21 109 0
-133 90 26 0
72 109 -101 0
74 -109 66 0
-111 70 149 0
83 -74 27 0
-27 -58 -75 0
-27 -4 128 0
-124 -138 110 0
-97 -14 29 0
-4 71 -28 0
72 73 126 0
58 -96 121 0
-25 110 -129 0
-62 20 124 0
2 145 -55 0
-133 -84 102 0
-5 92 -44 0
91 -9 -90 0
-136 69 -115 0
102 53 -45 0
24 -89 -69 0
-98 -46 -125 0
131 -137 14 0
32 -39 -31 0
142 -39 42 0
100 125 -128 0
-55 -133 89 0
-45 118 30 0
45 128 -127 0
60 -126 -66 0
-80 39 4 0
62 -124 67 0
74 -37 88 0
146 -35 -85 0
1 -148 -94 0
126 -127 58 0
54 118 -150 0
26 109 19 0
-27 19 62 0
-85 -49 96 0
67 -104 -148 0
74 -27 44 0
-59 -44 -9 0
-83 -122 -16 0
-78 54 150 0
-135 -91 144 0
-44 32 -58 0
142 48 36 0
54 -115 18 0
115 -140 -78 0
64 -139 -1 0
113 60 140 0
16 65 -148 0
81 79 -8 0
-4 83 -60 0
-133 -34 53 0
-32 -131 -8 0
60 -133 -83 0
137 -72 -126 0
-88 132 125 0
96 -110 -76 0
61 56 9 0
127 -16 103 0
-147 -18 -111 0
86 87 57 0
-30 49 66 0
-20 120 -3 0
55 -8 107 0
-14 4 74 0
123 -37 25 0
-77 -33 111 0
-93 -83 -16 0
-148 7 -86 0
113 31 34 0
-9 -89 -123 0
60 -81 83 0
107 139 -68 0
-115 138 21 0
48 -9 -81 0
22 -95 84 0
145 45 13 0
-81 63 10 0
-66 21 -78 0
14 100 123 0
70 111 -92 0
4 11 76 0
92 -65 119 0
138 113 90 0
-142 149 37 0
114 109 16 0
121 -85 21 0
28 -99 91 0
31 95 145 0
-87 -6 113 0
-128 -66 19 0
-124 -100 49 0
-11 59 41 0
121 -15 42 0
131 -66 75 0
-130 47 -65 0
-59 48 131 0
62 -114 -33 0
127 -41 -149 0
-24 -69 -77 0
-79 6 2 0
140 -66 -104 0
75 144 -129 0
-63 -123 102 0
-66 147 121 0
64 -71 -38 0
117 -32 109 0
114 -112 118 0
-15 -21 31 0
-65 -33 88 0
115 -112 149 0
91 108 -115 0
112 -55 -107 0
-115 -123 124 0
-91 116 -120 0
5 22 -93 0
10 138 83 0
-56 126 -67 0
-69 -92 -87 0
100 105 54 0
48 -1 86 0
56 -3 116 0
136 37 -122 0
-143 -128 -16 0
41 110 104 0
-139 8 -48 0
-68 -139 -45 0
74 -51 -93 0
102 27 -111 0
120 135 66 0
-74 145 -17 0
110 -149 86 0
45 88 -46 0
-90 110 -122 0
-54 14 123 0
56 79 -149 0
-77 60 -46 0
45 72 -73 0
148 -91 -31 0
77 108 68 0
-40 -142 119 0
-92 -90 25 0
-49 -60 145 0
-95 -99 111 0
-56 -147 75 0
-124 -92 74 0
63 -122 -123 0
84 -14 63 0
-115 122 35 0
53 20 -103 0
91 -51 41 0
-79 131 -63 0
-119 -125 -62 0
-69 -21 44 0
130 -125 123 0
22 14 -76 0
43 -97 98 0
82 -125 57 0
74 -6 68 0
