p cnf 100 426
-36 -38 -66 0
-3 99 -29 0
-65 67 -23 0
-18 60 -79 0
-5 -38 88 0
-27 28 -98 0
76 -41 -91 0
-14 12 13 0
-16 70 -7 0
81 87 -26 0
-29 -6 -53 0
-97 -79 98 0
-50 -13 -60 0
93 68 -2 0
4 76 -14 0
77 68 2 0
-90 -64 -34 0
-93 -54 1 0
-79 45 -18 0
-16 68 -82 0
-29 30 51 0
18 -97 53 0
28 78 65 0
44 -54 -10 0
-94 38 -17 0
-47 81 3 0
-51 -55 -56 0
13 -15 96 0
-6 25 8 0
78 12 98 0
42 96 28 0
-44 -46 7 0
-74 14 -63 0
83 -19 80 0
96 -6 15 0
68 58 100 0
-86 71 95 0
-30 83 48 0
-48 -58 89 0
-48 -73 75 0
-24 -3 -92 0
-22 -52 -97 0
-54 99 -80 0
-38 -71 -83 0
87 -98 59 0
-47 -75 50 0
73 -14 38 0
-80 25 -23 0
29 -38 100 0
-72 8 -53 0
20 -51 -82 0
4 83 -57 0
-93 30 -67 0
-47 -84 -32 0
-72 -97 -3 0
45 53 -85 0
79 -56 -44 0
52 -76 98 0
35 12 71 0
-10 -28 2 0
88 -19 -99 0
-97 -16 33 0
-20 31 -76 0
-81 6 -4 0
1 86 -66 0
-9 -8 -15 0
10 -11 -86 0
4 7 -9 0
-11 -38 81 0
59 -53 100 0
75 57 -83 0
29 -82 36 0
77 -37 51 0
-18 93 52 0
-18 45 -3 0
-93 -81 -61 0
73 -90 78 0
68 -87 69 0
-59 -30 12 0
92 -22 26 0
70 -11 -60 0
22 87 14 0
29 -97 -55 0
-17 -60 64 0
25 -28 58 0
-34 76 -7 0
7 19 -51 0
-56 36 37 0
33 14 51 0
-60 95 64 0
2 21 -82 0
-69 24 -14 0
-54 -22 74 0
94 -88 -78 0
-30 -70 32 0
88 41 -53 0
-95 -3 -64 0
-55 52 88 0
8 52 -64 0
-19 2 47 0
85 22 -24 0
-12 51 -87 0
-70 58 14 0
-10 67 -84 0
18 42 -73 0
-6 -72 76 0
80 -78 70 0
-21 -17 -5 0
-89 -94 -30 0
77 -92 -89 0
-39 -78 -44 0
9 83 -11 0
-59 97 5 0
23 31 70 0
99 -85 24 0
100 -10 -79 0
64 -79 -69 0
74 -56 -65 0
-17 41 -67 0
-83 69 -41 0
88 -81 -31 0
-85 47 -97 0
88 -59 73 0
-70 -23 100 0
24 68 51 0
-79 -38 24 0
-69 -95 -74 0
-29 -25 -70 0
44 -52 -22 0
24 -69 98 0
-44 50 -22 0
-29 -89 44 0
-29 65 14 0
83 63 -67 0
42 3 -79 0
34 -29 1 0
87 -66 -74 0
77 -62 -22 0
-75 31 35 0
51 40 12 0
42 26 -14 0
-28 -54 61 0
55 -58 41 0
-20 90 -83 0
12 5 -100 0
-16 -90 -76 0
17 97 62 0
-66 68 72 0
-18 -43 72 0
-8 42 -99 0
69 57 36 0
-44 66 -95 0
-94 -76 55 0
92 79 -37 0
16 11 89 0
-1 6 20 0
-83 30 -10 0
15 42 41 0
-5 67 -27 0
88 -13 -37 0
-50 76 80 0
89 -29 55 0
38 83 53 0
66 95 91 0
-9 68 -28 0
14 95 18 0
-19 -83 1 0
-95 2 12 0
27 92 71 0
-61 -52 67 0
24 45 -62 0
72 81 -35 0
-5 -42 -19 0
86 -95 59 0
-14 51 7 0
16 83 61 0
57 -92 -94 0
24 4 -42 0
79 28 95 0
-55 42 85 0
-71 19 31 0
32 -74 70 0
-54 16 -63 0
-64 29 -21 0
-74 -43 -34 0
-64 79 92 0
75 57 1 0
-8 -43 -32 0
64 -93 -15 0
-18 -75 72 0
-4 87 97 0
-94 93 -7 0
34 -98 -71 0
-60 -67 65 0
-27 -89 -95 0
-46 24 31 0
97 99 6 0
-50 -83 -11 0
15 -59 -9 0
94 74 -12 0
-100 -94 76 0
-26 -62 36 0
-79 -26 1 0
88 -76 64 0
-7 82 20 0
88 -90 59 0
-15 78 99 0
-52 14 -17 0
-5 -58 -18 0
98 -57 -32 0
5 38 74 0
2 -85 -23 0
100 -67 14 0
-12 -37 -3 0
-18 44 2 0
77 -37 -49 0
-90 -47 45 0
-95 84 -1 0
-77 -45 -17 0
-100 13 30 0
55 46 71 0
17 28 -4 0
-20 -4 19 0
47 -79 21 0
22 -77 -80 0
56 55 76 0
-37 68 84 0
-21 88 -81 0
37 5 32 0
-52 -64 73 0
40 -80 -9 0
45 48 37 0
-62 14 18 0
15 6 -72 0
16 -5 -27 0
71 30 -13 0
-63 -21 -55 0
94 86 47 0
-93 14 44 0
6 53 -58 0
-43 11 -7 0
36 63 39 0
-26 4 -3 0
68 -87 -46 0
64 4 27 0
-86 100 -26 0
-57 33 56 0
-46 -75 -9 0
61 3 5 0
-13 40 43 0
-15 -7 58 0
-33 5 3 0
-99 -71 -9 0
91 81 90 0
-91 9 -41 0
65 -5 -76 0
-51 -78 -68 0
26 60 76 0
78 72 96 0
13 -20 28 0
74 35 32 0
-24 -27 -95 0
-38 -75 73 0
-2 9 -92 0
85 18 4 0
70 22 14 0
-86 -85 4 0
70 -11 -31 0
-66 -77 65 0
-19 -15 -11 0
-69 65 -81 0
-4 -10 70 0
18 -21 -98 0
-67 -66 95 0
-65 -48 57 0
4 34 70 0
12 24 -25 0
-12 -98 -83 0
64 87 -76 0
72 -65 -20 0
86 62 82 0
-92 16 -34 0
15 -46 -55 0
-23 -63 -37 0
29 43 -93 0
-75 85 -86 0
-78 -54 90 0
70 -32 93 0
58 66 40 0
44 -14 50 0
98 -32 81 0
65 -74 -100 0
65 30 -79 0
-51 -62 20 0
74 -9 55 0
-10 -28 -15 0
-46 -85 97 0
27 92 -53 0
-1 44 24 0
72 -66 -13 0
-22 47 36 0
79 13 55 0
-38 36 -4 0
61 -97 -95 0
-99 -67 -17 0
-70 -81 -6 0
52 60 71 0
-53 -67 -14 0
-51 -81 -49 0
-69 -80 -32 0
-71 57 40 0
-12 -42 -44 0
-7 -15 -16 0
8 88 -100 0
49 89 6 0
88 -94 -8 0
72 51 -27 0
-83 17 13 0
8 49 -63 0
74 -39 18 0
-7 -38 49 0
95 72 79 0
56 -34 21 0
-55 47 -63 0
-74 -58 40 0
65 78 -4 0
-34 -52 49 0
54 44 -90 0
-78 45 -30 0
55 21 24 0
-98 58 -55 0
-40 -52 18 0
14 -11 23 0
-65 -33 -69 0
1 98 -69 0
51 -62 92 0
-11 -23 74 0
2 -35 -58 0
22 -82 -55 0
7 -27 -68 0
44 -30 56 0
97 69 -7 0
-22 48 34 0
-86 -72 -89 0
47 -97 35 0
40 84 -48 0
26 10 -15 0
-58 -37 -99 0
-63 -88 80 0
100 -51 -98 0
87 96 -22 0
-72 -69 -49 0
-46 92 -2 0
-78 50 -32 0
-25 -5 50 0
-93 70 -65 0
43 -30 -40 0
-82 -95 14 0
-61 65 37 0
23 -36 33 0
-34 55 -7 0
47 -89 9 0
-71 -14 -2 0
93 -86 42 0
-59 -65 -66 0
80 -73 -75 0
-20 98 -89 0
62 75 90 0
58 88 -18 0
-94 77 70 0
-35 -17 -27 0
21 -67 31 0
-15 83 -85 0
-21 -73 -27 0
-7 92 74 0
6 15 2 0
9 89 67 0
-4 -66 -81 0
87 62 92 0
38 25 48 0
93 31 71 0
-11 -76 66 0
-97 99 71 0
-76 41 87 0
-99 3 59 0
-48 -36 43 0
-10 43 3 0
86 50 -55 0
-51 -48 -39 0
-29 -37 1 0
-79 76 -35 0
-2 48 99 0
26 -38 -71 0
80 52 21 0
-30 -70 -56 0
-16 -61 68 0
79 -10 47 0
-47 -59 10 0
77 31 17 0
90 -98 -46 0
72 -24 -49 0
1 98 74 0
-60 -47 43 0
-63 -59 38 0
38 50 -78 0
83 -71 -19 0
18 56 -35 0
43 66 -76 0
34 -93 94 0
71 45 -88 0
-41 56 -100 0
-17 -47 64 0
-94 7 -9 0
-44 53 36 0
-18 -36 -61 0
-79 42 93 0
-63 -67 84 0
89 34 -92 0
-10 -50 70 0
-62 -9 -8 0
97 8 12 0
-23 -60 14 0
-55 -11 96 0
57 7 73 0
-56 76 41 0
-90 -84 12 0
