p cnf 50 213
-23 27 31 0
3 4 -9 0
-49 -23 20 0
31 20 39 0
38 43 -44 0
36 -4 -28 0
13 5 -22 0
30 -39 -45 0
40 20 -27 0
-3 -32 -15 0
30 -40 -14 0
22 48 -25 0
24 -1 5 0
-29 -13 41 0
2 -13 -19 0
22 36 -16 0
7 -2 -44 0
22 14 20 0
-11 -34 40 0
10 9 13 0
39 28 -41 0
-13 35 19 0
-18 -9 33 0
-6 31 43 0
42 -49 33 0
-46 -24 34 0
-18 -38 -26 0
14 15 13 0
28 -25 37 0
6 9 49 0
-38 3 30 0
-28 27 24 0
12 29 -15 0
-19 -33 -35 0
7 -8 5 0
44 -22 -17 0
-18 13 -46 0
-46 48 35 0
-23 26 -38 0
49 -10 26 0
-15 -34 -38 0
30 22 -6 0
45 -27 14 0
-9 37 -20 0
23 -22 15 0
50 -45 -35 0
-3 -9 -10 0
-39 37 26 0
35 25 -13 0
41 -20 6 0
45 39 -32 0
25 -19 14 0
4 24 -34 0
26 11 -8 0
-25 14 -9 0
-43 -31 -11 0
33 46 -44 0
-29 5 26 0
37 32 30 0
-42 -30 23 0
40 -12 -27 0
30 -25 43 0
3 -16 11 0
-5 45 47 0
-49 36 8 0
50 21 -27 0
-30 -2 5 0
-22 48 26 0
8 -46 9 0
-5 -6 36 0
31 18 11 0
-19 8 -35 0
1 44 18 0
3 -44 -35 0
-34 -42 43 0
-20 29 4 0
-13 16 24 0
-2 -1 22 0
-7 43 -11 0
21 36 -41 0
28 8 15 0
26 42 21 0
-43 18 -42 0
-27 -20 50 0
35 37 11 0
-41 -45 -25 0
-22 -12 -41 0
43 -31 -5 0
-25 -33 -41 0
-1 -15 2 0
48 28 49 0
32 19 13 0
-47 39 29 0
-42 -49 -3 0
19 -49 2 0
-14 -35 4 0
44 -45 -47 0
12 -29 41 0
-13 -4 41 0
-12 -38 36 0
6 28 47 0
28 12 39 0
-41 13 -18 0
24 26 -25 0
48 -28 49 0
-49 -25 -28 0
-39 35 10 0
20 -30 19 0
9 -46 31 0
33 -47 -24 0
48 -24 -25 0
27 -3 8 0
-28 -17 -50 0
32 41 45 0
28 48 -16 0
41 -46 44 0
39 30 -44 0
43 11 -1 0
-25 -26 -46 0
-13 28 11 0
-35 -43 -25 0
-47 -6 7 0
10 -18 -48 0
1 11 -32 0
34 27 42 0
12 46 -9 0
29 37 14 0
-49 -13 17 0
40 7 41 0
18 5 22 0
49 -7 1 0
38 -3 7 0
-34 49 18 0
-28 22 24 0
16 -24 -43 0
22 -7 -1 0
9 -2 -39 0
49 -16 -24 0
33 -27 -43 0
21 2 -41 0
21 44 -29 0
-6 -23 28 0
-43 45 7 0
-10 -34 37 0
-32 -6 -20 0
-30 11 -29 0
-16 -14 11 0
28 -46 -2 0
-50 -18 -15 0
-43 -8 9 0
-45 -22 -15 0
-42 -22 -25 0
-42 36 28 0
-6 -8 -22 0
8 37 24 0
48 -1 -20 0
28 -21 -50 0
-34 43 39 0
-30 21 10 0
-44 30 -10 0
45 -3 -39 0
18 -46 37 0
-46 25 -4 0
-14 47 -15 0
12 -32 -47 0
11 2 36 0
23 -49 26 0
45 13 -36 0
38 -4 -46 0
29 45 31 0
48 -13 -42 0
-44 10 -25 0
-4 7 23 0
-33 -42 -22 0
26 16 3 0
-39 -12 -42 0
43 -6 50 0
41 42 29 0
-32 42 -43 0
-37 31 -18 0
-25 31 42 0
-21 -5 46 0
-45 -2 -26 0
-32 -5 -34 0
-42 -8 -49 0
12 -39 -45 0
-8 -3 9 0
17 49 3 0
-35 -11 28 0
-3 34 -19 0
-45 -21 -34 0
33 -14 45 0
-13 10 20 0
36 14 -38 0
5 -36 17 0
-30 -6 17 0
-14 -5 -41 0
-13 -46 -24 0
11 -27 10 0
39 -16 -5 0
-27 5 22 0
18 10 -15 0
-15 25 -7 0
20 38 -32 0
-19 -36 18 0
49 -25 -12 0
-35 36 -39 0
-17 1 44 0
25 -37 -48 0
24 -46 -50 0
-12 -29 23 0
-28 -34 46 0
-6 -20 -27 0
