p cnf 50 213
-40 -25 -18 0
-8 -9 -21 0
-27 -41 29 0
-31 43 -32 0
-15 -6 17 0
-16 43 42 0
32 4 -14 0
13 -32 -7 0
-33 -21 -49 0
33 7 -9 0
-40 33 13 0
-11 -44 20 0
30 7 48 0
-18 2 31 0
36 6 -23 0
33 22 4 0
25 47 28 0
18 34 -39 0
42 16 8 0
-18 16 -5 0
45 46 -26 0
45 -18 32 0
19 46 39 0
-45 -40 -31 0
11 21 -44 0
10 1 43 0
-17 -5 -11 0
31 38 1 0
-2 -37 -44 0
-11 49 -10 0
-22 -29 32 0
32 -17 24 0
-22 -34 -50 0
-31 -8 18 0
-27 15 43 0
-37 48 -45 0
13 25 -41 0
35 -29 34 0
22 -26 38 0
-3 -38 34 0
30 -37 23 0
-44 -10 30 0
36 43 -11 0
1 -30 3 0
32 -20 1 0
-17 -9 -23 0
-50 -36 10 0
-47 13 28 0
-31 -23 16 0
-7 17 20 0
-21 38 9 0
36 13 -20 0
30 -35 12 0
-9 -34 -29 0
23 -30 28 0
36 -2 -50 0
-20 16 -38 0
-37 19 4 0
-1 30 49 0
4 -18 -42 0
37 31 -45 0
-44 -33 -48 0
36 -48 -32 0
10 -20 41 0
32 40 45 0
8 34 7 0
33 29 26 0
12 -16 35 0
43 -40 8 0
48 -43 -16 0
31 -19 43 0
-18 26 25 0
28 10 2 0
-38 -20 -3 0
3 -23 9 0
-11 -23 33 0
-46 34 25 0
42 -47 -37 0
18 49 -43 0
-42 -31 25 0
-46 33 -50 0
-38 23 40 0
47 11 -15 0
31 -21 -49 0
-16 7 -12 0
5 4 -40 0
-29 -49 -24 0
21 7 -45 0
36 -13 17 0
-48 -11 28 0
-38 2 41 0
-9 -1 -24 0
-22 -12 -44 0
-32 13 14 0
-40 36 -9 0
5 -37 6 0
-32 15 4 0
-19 17 -25 0
-19 -5 -35 0
-33 -20 -26 0
-38 31 17 0
13 22 -49 0
-22 49 43 0
-37 -40 45 0
-5 -27 -39 0
-31 9 18 0
15 42 -23 0
15 -2 4 0
-39 25 44 0
25 -50 -45 0
-8 29 40 0
28 -4 16 0
-48 -49 35 0
47 16 4 0
-3 -21 -23 0
9 39 26 0
17 -35 14 0
15 29 -46 0
-42 16 -34 0
-7 -4 -23 0
-18 -6 -14 0
20 48 -36 0
-10 -3 16 0
-8 2 -32 0
20 -6 4 0
25 29 -3 0
35 -4 43 0
-2 -39 -49 0
-49 38 -14 0
-28 -47 -48 0
-47 -44 19 0
-37 47 50 0
-48 16 -9 0
-18 6 -16 0
3 -40 -18 0
50 -39 1 0
17 12 29 0
-23 31 41 0
-6 -18 40 0
17 50 18 0
-12 10 -40 0
-12 -44 33 0
-46 -15 -4 0
-2 44 23 0
7 -5 33 0
-21 -37 24 0
28 -19 10 0
27 -42 -24 0
11 24 -3 0
-7 -39 -14 0
33 38 -46 0
3 -43 -47 0
-5 -15 -37 0
27 -35 -47 0
-39 31 43 0
37 -19 -16 0
-15 30 21 0
47 -27 24 0
-24 42 31 0
37 -9 -35 0
43 9 39 0
-6 -27 -33 0
-50 13 12 0
-17 49 36 0
-3 -28 2 0
34 25 -28 0
46 -19 8 0
-39 40 -7 0
-23 -29 27 0
49 31 -45 0
-33 -6 10 0
42 30 -25 0
18 50 7 0
-34 38 33 0
-21 49 -12 0
-47 -14 -28 0
7 23 19 0
-15 11 -19 0
7 15 -43 0
33 -49 -11 0
35 -13 1 0
-19 -37 -28 0
-19 -8 46 0
28 32 17 0
-43 -8 23 0
-5 21 -11 0
33 -44 -50 0
-3 -28 7 0
36 -43 41 0
-9 38 25 0
-31 -10 32 0
-13 -41 -6 0
1 -28 -5 0
3 27 -45 0
-41 -23 -31 0
15 -19 43 0
23 35 -31 0
-49 19 -27 0
-8 -12 30 0
-26 46 -9 0
-32 39 27 0
-14 27 -4 0
27 26 29 0
32 -47 15 0
-27 -15 -37 0
8 -40 -22 0
-2 25 6 0
-50 -36 5 0
13 -11 35 0
11 -24 22 0
-1 -3 -2 0
32 3 -11 0
45 16 -3 0
