p cnf 200 852
118 84 -192 0
29 -107 -129 0
96 161 109 0
-33 8 114 0
55 65 165 0
195 -143 102 0
77 -35 116 0
-62 164 -58 0
-8 67 -161 0
13 -104 173 0
-186 -173 79 0
54 112 99 0
-18 190 110 0
-129 180 81 0
-181 -51 -143 0
73 31 106 0
-90 -166 -123 0
-137 -171 179 0
-140 -35 -116 0
97 132 -60 0
-127 -97 -177 0
-15 -19 76 0
2 38 -47 0
178 153 -85 0
96 -20 -107 0
170 40 -93 0
-73 -19 -125 0
47 136 -127 0
-70 185 99 0
-168 53 -170 0
18 -180 -169 0
-35 -170 -33 0
-145 33 39 0
-11 -64 176 0
-41 109 167 0
98 127 -198 0
123 38 159 0
165 -66 45 0
-10 -129 -134 0
-115 77 48 0
-84 -97 185 0
-136 172 3 0
108 -48 -24 0
-146 156 164 0
152 2 107 0
-2 31 170 0
-90 -41 -127 0
71 -48 112 0
15 165 -113 0
-173 124 -87 0
59 87 125 0
-96 195 -1 0
13 98 134 0
-143 -107 -176 0
141 -95 26 0
91 -12 23 0
-155 43 -161 0
-16 154 88 0
133 -55 -168 0
-94 103 108 0
73 60 -139 0
-129 9 165 0
-164 -7 -124 0
-66 143 -51 0
192 183 135 0
-86 177 144 0
190 76 -186 0
-56 -125 -198 0
-16 -33 -171 0
-132 21 -161 0
163 -193 79 0
183 -176 161 0
21 -63 167 0
6 163 -196 0
144 159 -193 0
123 -130 175 0
-135 -152 103 0
-24 125 -179 0
10 -132 -41 0
-44 -145 188 0
3 118 -130 0
88 98 182 0
42 -56 -44 0
-168 -121 -181 0
-71 -22 63 0
-20 162 128 0
-110 28 -79 0
81 140 75 0
159 80 71 0
112 -41 181 0
-195 -137 -135 0
-99 -8 126 0
75 167 91 0
-141 -190 172 0
-157 -161 -106 0
76 118 -177 0
-92 10 -130 0
-115 -183 -139 0
97 53 178 0
-88 -139 -200 0
-174 -31 113 0
-2 -20 182 0
-78 112 -139 0
106 160 24 0
110 15 -41 0
-87 -23 144 0
171 -13 70 0
100 -84 159 0
50 -131 -24 0
105 -19 200 0
-40 78 -142 0
-67 -91 -127 0
-160 69 -118 0
16 170 197 0
-139 -107 160 0
113 -184 90 0
194 124 195 0
-69 -146 -7 0
148 75 -166 0
16 -93 -111 0
-158 127 -29 0
36 -59 189 0
-137 -32 189 0
-169 140 125 0
-186 189 -136 0
125 121 -34 0
186 -16 180 0
-19 154 -199 0
8 167 122 0
-55 -142 100 0
137 -171 -160 0
188 -191 110 0
-160 6 -104 0
78 -170 -37 0
-196 32 -180 0
145 -13 42 0
-197 190 91 0
-155 29 106 0
-1 -137 -170 0
119 92 -61 0
158 187 104 0
-77 -145 -14 0
54 -97 57 0
76 16 -134 0
170 131 -43 0
111 198 -72 0
-48 -159 -150 0
-84 -14 122 0
193 -153 1 0
-156 21 124 0
25 -77 -55 0
189 -55 -188 0
-106 178 -43 0
34 115 119 0
-161 134 45 0
194 -27 -59 0
-116 152 8 0
-75 -49 -127 0
178 23 -104 0
79 42 128 0
-22 77 -98 0
75 76 -102 0
141 -40 29 0
86 41 -173 0
-157 -27 86 0
51 -149 -122 0
-138 181 182 0
10 -104 -157 0
-58 -76 87 0
-171 -194 46 0
-35 -145 -17 0
135 76 67 0
194 -39 119 0
-186 6 163 0
-61 -79 -159 0
28 -56 37 0
-144 -175 169 0
88 37 163 0
-79 9 136 0
77 -156 -76 0
147 192 -54 0
-135 -188 -87 0
31 -55 -134 0
-72 154 178 0
-82 -188 10 0
65 31 54 0
-85 12 -120 0
-19 182 -134 0
192 89 -187 0
-136 -128 13 0
53 112 -146 0
177 -147 -191 0
193 171 -98 0
-140 88 11 0
44 93 -94 0
-43 144 -8 0
67 -25 -3 0
126 -42 -94 0
-69 -61 -58 0
153 33 -101 0
-31 150 52 0
85 -187 185 0
177 -24 -87 0
-191 -148 -144 0
166 -171 26 0
-48 -152 -68 0
46 -40 -105 0
149 129 104 0
168 173 156 0
-191 -12 -169 0
71 -133 -135 0
104 161 -127 0
-115 39 -155 0
-15 20 45 0
102 5 -174 0
-135 -131 -187 0
-99 147 168 0
137 -21 58 0
-154 126 7 0
-199 -106 48 0
116 192 -195 0
8 -173 -133 0
-1 -144 -135 0
-50 -76 -182 0
-185 -48 154 0
52 -199 85 0
-106 23 -10 0
84 -105 194 0
136 71 56 0
10 -101 -168 0
30 1 -91 0
166 197 -85 0
29 85 -112 0
-40 43 173 0
-110 128 49 0
46 -192 45 0
-193 140 -31 0
-164 -121 26 0
-124 -158 -96 0
182 -110 144 0
-135 186 -137 0
164 104 121 0
127 -83 -179 0
126 75 -87 0
51 47 76 0
25 -99 -49 0
63 -148 90 0
-46 163 -80 0
-115 147 3 0
113 39 -152 0
98 195 -38 0
1 -175 -78 0
189 -104 200 0
-139 -17 -122 0
-24 66 -93 0
23 -110 -139 0
126 -23 190 0
103 -43 -160 0
62 -170 125 0
-57 -155 165 0
42 -81 -142 0
134 8 -125 0
-155 144 -8 0
136 -137 169 0
110 23 42 0
-120 97 7 0
-171 2 -98 0
-171 -106 57 0
-176 159 -122 0
92 47 -20 0
-131 94 32 0
188 -123 30 0
66 21 -127 0
-14 -87 -55 0
78 50 -131 0
123 -89 -162 0
-107 -29 -115 0
-10 72 -60 0
-35 75 -179 0
-84 130 -21 0
129 149 159 0
-134 117 181 0
-24 80 20 0
-72 -115 -144 0
135 100 -113 0
-25 74 17 0
132 -71 14 0
-180 -9 -162 0
-188 -144 -113 0
-159 90 -57 0
-6 -167 81 0
-155 51 3 0
115 -139 -193 0
-158 79 -7 0
-142 167 171 0
159 27 105 0
-52 -175 -23 0
-197 159 -104 0
-91 34 114 0
27 -157 71 0
-52 65 132 0
-39 -124 14 0
68 -176 186 0
-89 -61 -56 0
41 153 199 0
111 48 -31 0
-29 107 195 0
-168 102 -59 0
-57 -164 53 0
-86 -46 71 0
124 55 -180 0
146 -84 -33 0
-17 83 -43 0
-131 -44 162 0
-124 -50 -94 0
123 -178 -93 0
-29 -133 144 0
-46 174 163 0
-167 92 131 0
163 -57 -158 0
-28 72 -115 0
-133 -75 -88 0
-127 120 35 0
175 53 139 0
-163 23 100 0
-164 -27 38 0
-159 145 -152 0
177 46 -155 0
2 186 -74 0
28 -86 17 0
-158 194 100 0
6 131 193 0
187 -184 -111 0
34 24 110 0
-104 175 -70 0
-22 166 -198 0
-102 144 -73 0
188 95 99 0
-10 -116 -195 0
194 -180 -129 0
120 137 -151 0
86 147 -168 0
196 -66 53 0
58 -78 -24 0
-119 147 -126 0
158 142 -176 0
-143 -108 -46 0
139 -200 18 0
118 64 124 0
-19 53 -28 0
4 191 29 0
57 21 -59 0
107 -118 121 0
170 -34 15 0
-147 -99 168 0
103 106 37 0
-33 189 148 0
61 -167 158 0
-24 91 -147 0
-107 30 176 0
96 -175 187 0
-39 -193 -162 0
135 -36 -199 0
-69 -39 96 0
125 68 105 0
59 -85 63 0
-33 -96 48 0
4 -131 132 0
167 23 -29 0
111 -192 97 0
-17 87 -151 0
-23 -47 -146 0
86 196 -174 0
-54 103 49 0
-8 9 -87 0
196 20 105 0
181 -158 -196 0
-45 50 -41 0
-90 156 189 0
125 88 138 0
-196 126 135 0
7 -182 154 0
-128 -16 -98 0
-115 139 48 0
-74 -125 -124 0
-57 101 -114 0
151 -179 108 0
97 122 -177 0
121 -28 133 0
-32 -114 137 0
87 141 -126 0
22 174 -145 0
63 -77 181 0
178 -136 84 0
-99 57 108 0
159 101 157 0
51 81 88 0
-54 -66 -124 0
65 13 -180 0
11 44 -99 0
-102 18 16 0
55 -21 -154 0
-120 1 -30 0
-132 146 78 0
-17 2 -21 0
-37 -40 -105 0
22 -180 -149 0
190 -142 -94 0
-195 -100 -104 0
86 -29 56 0
160 -137 36 0
54 -118 -115 0
-43 -177 104 0
-183 148 188 0
-17 6 -100 0
181 138 -46 0
-157 109 119 0
-83 -173 -130 0
-193 -1 64 0
112 52 -193 0
160 188 -96 0
156 -116 189 0
59 57 -87 0
-38 106 -97 0
98 47 -16 0
-29 -91 -156 0
165 57 127 0
-15 -183 -60 0
194 20 -25 0
-51 28 -124 0
37 -184 195 0
-42 -197 -155 0
-171 -199 -137 0
35 93 38 0
-74 -112 70 0
-104 187 -135 0
-102 -56 114 0
-196 -61 138 0
-142 -88 2 0
102 -139 98 0
-33 200 173 0
-57 43 133 0
-148 -60 151 0
35 17 55 0
-117 2 -146 0
-56 -17 100 0
-119 139 -16 0
-14 -168 8 0
18 84 127 0
159 -108 158 0
3 44 -32 0
-133 42 191 0
-94 144 67 0
197 124 -41 0
-130 -40 88 0
-57 -43 -3 0
-137 -21 -81 0
54 -69 -13 0
-92 119 -73 0
-108 -95 -41 0
63 147 10 0
4 73 -117 0
149 -54 13 0
-81 152 92 0
-44 -129 -103 0
187 11 44 0
22 -88 6 0
88 -102 22 0
179 -31 -53 0
-10 52 -34 0
33 -125 -140 0
139 65 171 0
55 -190 -26 0
89 -98 174 0
-80 -188 -95 0
23 -181 -156 0
95 185 79 0
-141 -63 -37 0
-52 -91 145 0
196 24 117 0
-37 102 81 0
46 -183 -189 0
125 167 64 0
-71 -182 179 0
111 98 157 0
-2 145 98 0
-69 -107 -33 0
-85 31 -182 0
-20 -128 -192 0
141 -183 191 0
-54 156 -21 0
110 27 10 0
-70 -22 110 0
-134 -18 -35 0
68 -36 -188 0
6 -26 118 0
56 -109 23 0
36 -118 -165 0
-127 56 191 0
57 123 -79 0
83 128 -106 0
23 96 -6 0
-65 177 192 0
197 -172 196 0
-83 -106 56 0
73 -94 -18 0
-171 85 198 0
-151 145 139 0
113 109 -38 0
104 88 20 0
164 -154 179 0
5 49 -13 0
-36 -57 -98 0
-154 -24 -137 0
-125 -91 -113 0
2 -50 186 0
87 -41 21 0
-98 -10 176 0
81 -91 -50 0
47 -129 -98 0
67 -26 -142 0
104 -111 -148 0
-28 139 79 0
12 -98 -194 0
34 113 80 0
6 3 195 0
-16 -197 -75 0
192 -88 -109 0
65 68 -196 0
52 24 -159 0
-159 -138 22 0
-184 80 -66 0
-199 155 7 0
163 -71 147 0
-112 3 166 0
-193 77 72 0
-8 85 -45 0
-92 151 20 0
-3 5 -190 0
-86 46 -180 0
86 135 -38 0
-198 41 -58 0
47 -119 -185 0
160 175 -61 0
26 -109 200 0
150 96 -104 0
18 -10 -38 0
143 -113 158 0
-138 55 123 0
30 -9 -62 0
123 24 116 0
-108 -9 -133 0
-38 55 -86 0
-152 42 -92 0
59 -79 -128 0
-24 -102 32 0
-165 -128 21 0
-135 6 -146 0
-32 -113 -67 0
3 -99 -95 0
113 154 -112 0
-169 44 -38 0
36 24 15 0
193 -22 32 0
81 -171 43 0
108 96 11 0
22 -112 -76 0
162 -187 -159 0
-33 151 70 0
40 184 -176 0
67 -23 -182 0
133 -149 123 0
90 -7 15 0
107 -185 59 0
161 -86 25 0
-55 -26 -113 0
-4 100 94 0
-187 160 -76 0
-50 109 37 0
-143 -103 122 0
-83 47 -169 0
114 -195 178 0
-182 -51 -128 0
-199 14 59 0
-191 -78 -117 0
-169 77 181 0
112 -155 -105 0
45 170 -5 0
-3 172 -12 0
-61 -106 -160 0
-172 -192 133 0
89 31 146 0
168 147 185 0
-147 64 -13 0
179 -7 -28 0
191 -117 123 0
-188 119 -91 0
-80 -170 129 0
-56 31 -62 0
-47 96 32 0
-183 154 114 0
-55 84 130 0
42 -186 161 0
-181 158 36 0
-24 88 -184 0
8 -49 -197 0
-14 69 -103 0
-123 142 160 0
3 56 169 0
182 45 -113 0
-88 158 -150 0
-16 107 142 0
-176 -75 3 0
119 -54 -117 0
-30 -45 9 0
-150 -31 72 0
-166 199 -139 0
-68 188 184 0
165 140 -68 0
-110 -70 -96 0
98 -108 -122 0
93 -72 -131 0
46 76 171 0
192 -195 105 0
127 -179 -85 0
97 -48 29 0
162 -138 -54 0
47 -122 -44 0
-86 -88 195 0
142 -44 127 0
-112 -148 -164 0
197 123 3 0
56 152 -116 0
-173 146 152 0
17 -61 164 0
-37 107 -72 0
-139 -114 -48 0
-179 -147 110 0
154 -44 8 0
-50 -41 -31 0
-30 -103 -109 0
-166 80 -174 0
-62 193 158 0
-147 -200 -116 0
-147 4 -131 0
125 -11 -136 0
-157 139 -98 0
67 194 -154 0
-55 -12 83 0
163 -183 32 0
-10 -61 -175 0
166 100 155 0
32 59 194 0
177 34 42 0
157 23 12 0
61 -23 -33 0
164 -61 104 0
69 -131 -94 0
76 -150 -156 0
112 111 49 0
197 -26 -30 0
156 -33 24 0
32 148 -131 0
-76 43 169 0
10 110 -26 0
-199 -41 -63 0
172 -41 14 0
59 90 75 0
158 116 -171 0
27 -126 163 0
39 129 -42 0
5 144 -62 0
73 162 -164 0
138 171 -125 0
-117 168 -154 0
-34 96 -184 0
190 -8 160 0
174 137 132 0
6 -127 9 0
32 -187 149 0
-97 69 -84 0
81 5 145 0
-191 138 -21 0
174 23 170 0
17 41 38 0
73 -1 -43 0
131 28 31 0
39 -9 -1 0
111 -89 195 0
98 188 136 0
189 -154 121 0
113 165 -102 0
-161 -109 116 0
-106 -140 49 0
-130 80 104 0
-105 -152 53 0
82 76 -192 0
170 122 -46 0
129 116 139 0
152 -27 -63 0
38 -78 25 0
-20 -60 -112 0
-15 -87 -181 0
-184 173 143 0
-170 2 -147 0
40 -15 -80 0
-93 -147 -5 0
90 -15 -111 0
-73 -104 128 0
-16 -53 -179 0
-72 26 114 0
-55 145 -53 0
24 73 59 0
95 165 115 0
68 -118 -134 0
-97 -49 38 0
38 188 -71 0
-62 183 -138 0
50 18 1 0
94 -79 48 0
-160 -39 104 0
-152 68 -108 0
-189 29 -51 0
-64 -87 143 0
-160 139 23 0
-19 13 -199 0
-16 178 172 0
197 -75 -138 0
-159 -102 64 0
-17 -103 39 0
-100 128 -189 0
164 -102 -107 0
139 61 176 0
7 169 -164 0
-34 105 7 0
-127 139 135 0
-183 -178 10 0
167 -64 200 0
-45 -196 77 0
-51 93 13 0
93 -136 189 0
31 -59 -43 0
-91 -83 122 0
-122 154 -12 0
-25 -72 -85 0
35 46 -54 0
152 -7 -154 0
-175 125 -27 0
91 156 -85 0
84 -145 121 0
-32 167 -165 0
-36 -157 -92 0
-4 -100 -195 0
-190 -62 -57 0
86 42 -17 0
44 113 -116 0
-172 -123 17 0
-82 -19 55 0
-112 -56 -104 0
52 -164 160 0
-60 197 -3 0
-17 95 96 0
15 43 118 0
-25 -90 41 0
-133 71 122 0
45 113 -86 0
108 -15 156 0
11 20 -125 0
46 -136 -163 0
117 42 24 0
112 71 39 0
-114 -184 -63 0
56 -166 31 0
121 -74 -185 0
-110 122 24 0
85 110 -150 0
75 -102 -34 0
-32 -79 199 0
-191 40 119 0
-26 -21 -159 0
118 -171 152 0
90 -164 15 0
-176 171 -200 0
90 158 19 0
-122 125 19 0
125 57 13 0
108 154 174 0
-169 -52 100 0
21 50 140 0
-89 29 -99 0
89 -85 31 0
47 148 -179 0
31 -108 86 0
-88 2 116 0
-119 -46 -58 0
75 -43 140 0
-189 -64 -5 0
-178 39 -197 0
21 4 64 0
9 -99 89 0
20 84 154 0
62 196 -138 0
-182 -81 -136 0
192 91 20 0
91 -105 22 0
118 55 -175 0
-76 155 -47 0
169 -189 154 0
191 5 179 0
105 177 -120 0
-127 131 -162 0
110 118 -123 0
107 183 35 0
183 -82 84 0
17 173 -90 0
-121 181 178 0
7 -66 47 0
117 -61 -115 0
-70 105 156 0
-48 17 134 0
81 -168 -176 0
-62 -38 -119 0
-33 -141 -32 0
198 70 -101 0
-192 188 -130 0
38 -59 32 0
181 -119 -122 0
122 184 8 0
-57 -173 48 0
179 -45 -63 0
35 -197 195 0
152 119 158 0
82 141 -199 0
-124 -61 -94 0
171 36 181 0
-123 -191 -34 0
-59 187 -192 0
59 91 -119 0
37 -52 -101 0
184 130 169 0
-167 -175 -66 0
117 -149 196 0
-4 -29 -20 0
94 -39 140 0
163 -81 154 0
-17 186 98 0
-183 -121 -6 0
-95 99 152 0
110 55 -173 0
-127 -80 23 0
86 -118 -130 0
-36 107 -16 0
