p cnf 200 852
55 173 -156 0
158 146 60 0
16 92 177 0
-45 -195 80 0
170 18 -62 0
24 49 40 0
98 38 -99 0
193 188 8 0
187 104 -151 0
48 63 165 0
-194 97 -197 0
126 48 -83 0
108 67 -119 0
54 90 -71 0
-155 173 -79 0
-17 132 -23 0
-124 118 9 0
185 39 -54 0
-90 -30 -74 0
-184 83 200 0
-74 3 -134 0
-26 -112 141 0
136 190 -45 0
105 171 167 0
188 -185 -57 0
-12 144 -58 0
70 163 174 0
-152 153 -141 0
-178 -142 -61 0
-44 -107 47 0
-32 -144 83 0
-123 -110 26 0
133 61 67 0
155 -89 84 0
198 52 50 0
-20 82 -148 0
-25 -177 -14 0
35 -88 12 0
99 14 -44 0
-98 59 -82 0
34 -54 -75 0
1 -177 -66 0
-168 66 81 0
-7 -140 -194 0
11 -185 147 0
-57 98 49 0
106 -22 93 0
-83 27 149 0
110 -21 -112 0
16 -199 -71 0
-200 3 5 0
-33 32 -179 0
135 -109 -53 0
142 147 -53 0
154 -16 -78 0
-106 97 100 0
-39 -178 -105 0
80 131 175 0
39 -125 57 0
-198 -178 93 0
199 166 -136 0
45 -55 101 0
-176 159 97 0
-121 154 -169 0
157 -76 63 0
-177 -169 26 0
83 -153 -79 0
-118 144 -121 0
47 -182 -128 0
-14 110 36 0
163 118 -23 0
-152 71 125 0
58 -108 -86 0
-31 174 -65 0
197 3 2 0
-38 -12 46 0
-6 150 4 0
-129 140 -88 0
-85 101 -172 0
-52 -98 136 0
35 -171 67 0
-81 126 -36 0
-51 7 186 0
-192 -154 -25 0
85 -82 -168 0
4 -75 126 0
12 92 177 0
46 101 50 0
71 34 -8 0
100 19 63 0
2 28 152 0
137 141 72 0
154 -51 16 0
158 -6 184 0
52 -133 -19 0
48 -152 -70 0
-48 80 -25 0
-9 54 86 0
162 -179 -144 0
131 10 19 0
56 150 -141 0
-168 -74 -136 0
93 -55 -25 0
-96 -44 -116 0
51 98 -101 0
-166 2 -30 0
-117 -176 65 0
-73 -24 -135 0
-140 98 63 0
-7 -98 88 0
161 -136 197 0
169 -186 -153 0
89 -188 -21 0
-66 23 90 0
-85 139 -161 0
147 -37 42 0
-165 -133 34 0
-169 129 -29 0
197 -153 49 0
-116 155 30 0
-53 -121 187 0
30 -43 -40 0
56 86 167 0
-93 111 -30 0
-194 -12 69 0
149 -103 88 0
-129 71 -185 0
58 -1 -140 0
-151 111 -116 0
32 38 -161 0
48 -123 52 0
-134 94 8 0
-22 117 104 0
171 -103 20 0
-113 -149 144 0
161 152 -111 0
22 -199 -12 0
-63 -106 117 0
-36 -188 -3 0
-146 126 5 0
-29 141 -22 0
-155 121 -177 0
-6 -63 -160 0
189 -48 64 0
-82 78 56 0
172 146 -36 0
-198 155 -135 0
-111 186 66 0
16 65 -45 0
189 -10 -25 0
26 38 -113 0
153 7 85 0
128 22 -173 0
168 150 -156 0
151 -91 -147 0
-39 146 -40 0
14 189 -114 0
91 -101 21 0
-194 -67 -13 0
-175 -19 -195 0
-51 160 -8 0
-113 -50 -103 0
192 -8 -166 0
-159 41 -194 0
-11 133 108 0
-156 28 188 0
-164 -159 51 0
-89 2 -78 0
82 -30 33 0
-38 109 86 0
109 75 63 0
115 95 73 0
-77 187 -178 0
200 72 -22 0
-11 194 169 0
2 -8 -125 0
-5 -166 -31 0
-85 21 -3 0
-185 -21 147 0
182 73 -82 0
130 181 -33 0
-120 181 -115 0
-10 -116 -182 0
-108 8 -89 0
-165 181 175 0
-133 20 179 0
-98 -105 22 0
158 168 176 0
155 -96 -84 0
35 -27 85 0
-72 169 -67 0
-129 68 -125 0
42 98 160 0
149 38 -117 0
124 -104 -115 0
64 -25 21 0
69 138 155 0
-164 86 -24 0
-84 157 -134 0
-111 2 -142 0
104 106 183 0
61 -89 99 0
87 -4 -103 0
169 162 152 0
-18 -179 -163 0
61 177 -57 0
-93 -28 154 0
36 95 21 0
-194 55 148 0
-40 180 50 0
95 115 -56 0
-81 -50 -64 0
199 -170 44 0
-103 -85 -6 0
52 12 -15 0
19 -122 126 0
-23 -3 -162 0
45 132 57 0
49 157 -119 0
-183 194 -154 0
-109 168 -147 0
19 64 -179 0
5 -108 28 0
147 110 -164 0
28 -100 192 0
48 52 -9 0
-188 130 -122 0
-22 173 16 0
110 164 26 0
108 178 25 0
111 -70 -21 0
-58 -17 52 0
144 120 51 0
53 120 95 0
98 -77 3 0
-91 166 79 0
38 -134 -55 0
-101 18 -16 0
161 31 72 0
152 183 -29 0
147 27 8 0
116 -183 -199 0
3 -102 46 0
147 -189 -135 0
-22 76 -52 0
96 -179 -129 0
127 -176 114 0
-144 -32 -162 0
-23 126 43 0
151 -110 46 0
160 -52 -15 0
74 144 -115 0
-69 -157 -54 0
173 70 27 0
157 72 10 0
-11 118 -82 0
-8 15 184 0
138 55 -167 0
-45 -9 37 0
-94 104 33 0
130 149 164 0
57 -18 100 0
31 39 12 0
53 35 124 0
-16 196 -80 0
31 36 -159 0
-94 101 -148 0
-121 179 19 0
143 -34 21 0
-73 184 -116 0
-32 169 -92 0
19 189 62 0
161 24 -169 0
139 -200 -185 0
65 -150 198 0
143 110 -169 0
-32 123 155 0
-125 153 -45 0
131 60 -71 0
130 -99 -42 0
98 -156 43 0
174 193 -135 0
45 165 76 0
110 -77 132 0
-101 34 113 0
153 -194 100 0
-50 54 73 0
103 72 -70 0
-44 -57 26 0
2 71 1 0
-189 158 -67 0
-85 6 -77 0
13 61 194 0
162 -44 -2 0
190 20 58 0
-139 61 -197 0
48 76 -140 0
90 -70 23 0
-42 131 -148 0
-11 -9 188 0
154 -125 101 0
94 10 49 0
21 30 -191 0
144 192 37 0
-76 127 -106 0
-124 -81 -9 0
72 65 120 0
46 127 68 0
-74 30 13 0
-132 -163 80 0
-10 183 -61 0
-116 54 -175 0
-17 -131 79 0
-63 149 -28 0
-172 187 25 0
106 197 -95 0
47 -101 99 0
116 137 164 0
195 -68 74 0
94 67 35 0
-3 -27 184 0
-87 189 -45 0
-30 92 -197 0
-170 173 -68 0
-49 -155 -133 0
-20 -161 2 0
69 -162 26 0
-136 -85 -14 0
-72 150 97 0
-94 55 62 0
151 -121 188 0
77 -54 -70 0
-164 190 -93 0
-72 137 -103 0
-43 151 -68 0
39 165 37 0
-135 -115 -79 0
-49 177 -90 0
31 -62 162 0
-184 144 11 0
-144 13 145 0
133 91 78 0
50 76 -166 0
130 -112 31 0
-17 -118 -53 0
-44 -103 -39 0
-27 147 -76 0
-96 -43 7 0
-187 -178 164 0
-191 19 176 0
134 143 -74 0
-193 171 -87 0
84 50 49 0
-39 150 175 0
153 -118 141 0
144 195 104 0
43 -168 -95 0
103 183 186 0
184 -105 59 0
39 -30 -26 0
72 -44 18 0
174 -114 111 0
-77 -15 -180 0
-146 -50 111 0
-196 -35 -101 0
-87 -178 -85 0
-161 122 -31 0
144 70 -92 0
123 61 74 0
22 90 -153 0
-64 -180 -89 0
8 -65 -53 0
-5 -182 68 0
186 -146 -158 0
-129 137 161 0
-51 -191 -70 0
-175 65 -11 0
119 84 -180 0
-153 60 142 0
83 -48 152 0
101 -167 -42 0
30 49 72 0
-2 -1 -28 0
24 -75 62 0
-92 49 -142 0
40 -41 77 0
-81 188 79 0
23 45 192 0
122 -5 181 0
16 41 -46 0
145 182 -55 0
-37 72 -22 0
-197 -71 -124 0
-186 80 189 0
-61 -92 130 0
179 51 -19 0
136 121 15 0
74 8 -39 0
-21 156 38 0
150 -115 77 0
-5 181 -167 0
77 -34 190 0
-54 60 3 0
-7 82 -32 0
-164 179 -148 0
141 144 96 0
195 -56 147 0
-31 -103 -125 0
-95 -173 -30 0
114 13 -22 0
-171 -139 -199 0
42 -191 116 0
-42 124 198 0
-50 74 -47 0
10 -150 -163 0
-182 -47 -99 0
61 52 69 0
-182 -58 199 0
-194 -35 51 0
15 -5 99 0
147 124 163 0
-147 49 -76 0
122 88 -40 0
131 136 116 0
64 173 149 0
-52 -33 134 0
75 -111 93 0
-163 62 100 0
-16 -140 160 0
177 39 -181 0
-123 -147 17 0
175 -31 -122 0
61 -89 -58 0
111 -92 -176 0
133 -45 143 0
199 172 154 0
-195 -199 165 0
59 141 91 0
-29 132 68 0
-77 95 -124 0
-127 122 81 0
-122 -73 -200 0
-192 72 -193 0
7 150 95 0
-62 -142 1 0
-67 -116 71 0
-40 143 -186 0
138 94 78 0
80 -28 -198 0
-8 -72 130 0
-103 -120 169 0
-72 -182 -67 0
-33 50 -23 0
-154 -14 -77 0
-12 130 177 0
67 51 -68 0
-126 -160 -198 0
108 131 -109 0
50 -19 -176 0
114 29 -70 0
-198 159 -51 0
-187 143 167 0
36 39 160 0
-51 -188 -123 0
45 182 -166 0
-66 -29 184 0
192 -186 103 0
100 127 -114 0
27 167 69 0
3 18 -112 0
124 -54 -90 0
4 -18 58 0
-99 151 -77 0
66 94 14 0
-178 107 118 0
-60 79 -148 0
17 -200 29 0
-75 79 13 0
-185 139 97 0
-56 -5 86 0
-141 170 128 0
-188 -114 -111 0
-185 -38 152 0
-118 -56 -20 0
-41 -165 -147 0
196 -179 71 0
106 -192 158 0
-148 92 101 0
57 32 150 0
-128 -26 -66 0
161 126 -45 0
-5 -78 -132 0
38 135 -129 0
-64 -136 163 0
178 103 -46 0
168 192 -194 0
109 166 -116 0
39 155 -137 0
160 -173 -47 0
-58 34 42 0
20 -82 -33 0
-133 -19 -73 0
16 -47 -10 0
86 -132 34 0
-4 -67 -30 0
-15 -90 104 0
5 -79 -94 0
105 81 72 0
-46 -105 129 0
-180 -96 -135 0
-106 -62 -1 0
-93 83 -14 0
-103 169 -78 0
-30 59 60 0
-42 133 -104 0
-2 107 165 0
177 123 127 0
-112 -19 -169 0
-166 14 96 0
9 178 66 0
-46 198 168 0
-16 81 -115 0
32 -178 46 0
189 139 82 0
146 84 103 0
-62 -120 -113 0
-130 -139 -47 0
82 32 47 0
-103 164 -29 0
-115 60 -122 0
167 66 -177 0
41 -11 -153 0
166 185 -129 0
49 176 -96 0
-200 166 -127 0
-117 -46 153 0
-170 43 83 0
-189 -31 190 0
-113 184 49 0
-1 -191 192 0
72 51 132 0
-134 -74 -22 0
-8 -82 52 0
-1 -93 -144 0
-63 -106 175 0
197 82 106 0
-51 12 -177 0
66 -55 120 0
157 129 -119 0
-200 196 80 0
-179 -102 -48 0
-9 69 -140 0
-19 172 117 0
103 -104 -46 0
123 52 -166 0
-182 158 -174 0
-100 -42 -102 0
-53 179 -100 0
-166 36 31 0
-130 -135 103 0
-44 90 31 0
159 134 151 0
13 -147 -68 0
-79 -16 102 0
49 109 -61 0
193 -175 -11 0
199 -99 4 0
110 -130 198 0
-23 61 -166 0
-38 -110 32 0
16 -68 -11 0
7 162 109 0
-16 -106 164 0
44 3 175 0
51 161 133 0
116 7 -134 0
-184 -164 -86 0
78 129 -116 0
-162 10 177 0
-91 168 117 0
194 -96 -89 0
-96 -128 112 0
196 11 189 0
-41 48 59 0
150 -179 15 0
-115 -159 -54 0
-74 78 -11 0
132 -36 -105 0
-87 -38 -105 0
74 -141 -133 0
-151 88 -182 0
199 -20 -77 0
-48 -175 101 0
20 113 123 0
8 191 97 0
62 -65 42 0
148 -196 112 0
-172 131 -125 0
162 155 166 0
-28 -8 40 0
-103 101 -129 0
-80 -32 -159 0
-131 113 -116 0
124 -145 140 0
-56 -48 -113 0
161 142 173 0
105 21 -33 0
160 -44 175 0
173 -103 -192 0
-165 140 -128 0
-129 15 111 0
13 -164 56 0
-60 145 52 0
146 127 -194 0
-28 195 93 0
-67 183 -4 0
164 -53 -126 0
16 -106 -122 0
55 -2 100 0
47 24 37 0
78 -5 64 0
-117 161 190 0
10 -119 -18 0
22 116 -72 0
-199 24 165 0
-53 -24 73 0
2 31 -13 0
-50 -20 -80 0
21 121 195 0
-49 136 90 0
-37 -140 -48 0
-88 -129 161 0
35 186 -187 0
134 -177 -130 0
-55 72 -104 0
-130 -73 -179 0
-167 200 97 0
-16 94 116 0
-116 -140 114 0
119 131 18 0
-129 -138 164 0
-145 -12 30 0
99 85 -117 0
162 -41 194 0
176 45 73 0
-109 2 25 0
-194 94 198 0
-196 -15 -150 0
122 74 -146 0
-180 -67 195 0
11 178 -147 0
155 -28 21 0
122 -123 -85 0
11 102 27 0
-190 129 53 0
95 -176 -128 0
-66 5 -119 0
-189 21 143 0
-94 -40 154 0
-172 -26 80 0
166 -100 -139 0
107 -24 37 0
-184 115 20 0
-88 -4 67 0
94 87 10 0
119 35 56 0
-143 -63 1 0
-109 -124 -21 0
41 -52 -83 0
-196 132 41 0
-140 -141 -80 0
-82 173 -47 0
61 20 89 0
-141 39 61 0
51 46 118 0
171 159 152 0
197 -184 -185 0
-131 -81 17 0
129 143 81 0
98 -65 -165 0
-106 -62 -108 0
56 -49 -145 0
71 39 -37 0
11 137 -17 0
-133 -16 49 0
129 -29 157 0
105 -76 -147 0
-120 82 124 0
-53 188 99 0
110 183 185 0
-104 10 -47 0
-187 89 -68 0
-164 -186 -128 0
-64 -10 162 0
-154 -81 123 0
-54 6 -118 0
156 -129 52 0
175 35 -47 0
-16 116 -170 0
20 -135 31 0
-124 -86 -35 0
96 -162 -115 0
-68 22 -92 0
4 129 -99 0
-136 161 -193 0
88 -60 -105 0
64 137 114 0
-77 89 103 0
15 11 85 0
-3 178 -14 0
-182 99 -95 0
101 94 176 0
-71 148 -154 0
-119 150 115 0
129 67 124 0
184 15 7 0
40 119 -189 0
-198 83 -60 0
14 120 198 0
-164 -45 6 0
22 -133 -72 0
78 48 -37 0
-7 -89 -53 0
-145 -108 198 0
-132 160 -126 0
-158 75 133 0
-62 -73 41 0
-55 123 24 0
-143 182 105 0
-142 152 -42 0
-76 8 18 0
-177 -187 84 0
173 -13 -186 0
65 179 26 0
52 -88 139 0
-181 -177 88 0
-42 186 98 0
7 -75 19 0
79 -151 16 0
91 -188 22 0
-154 -14 -134 0
55 -160 -63 0
-96 -113 -21 0
61 106 87 0
-59 -50 -118 0
-88 -12 -162 0
110 -102 -94 0
104 -74 140 0
38 -66 56 0
-180 164 -98 0
-162 -73 172 0
-45 -186 15 0
139 197 -65 0
-40 -140 -73 0
-91 -156 -16 0
-150 185 40 0
102 79 -133 0
-67 18 120 0
-16 -130 -161 0
-79 104 26 0
-63 -74 175 0
59 103 -131 0
142 -53 139 0
-3 -10 70 0
47 30 190 0
176 104 158 0
167 191 -137 0
199 -94 115 0
48 91 -22 0
-23 58 191 0
-17 -124 169 0
-138 197 95 0
-18 167 84 0
-98 167 -62 0
104 82 27 0
79 -115 53 0
103 -36 -27 0
-63 193 -184 0
87 104 145 0
26 198 -128 0
41 -47 11 0
126 57 -9 0
117 -5 92 0
-178 40 -110 0
97 -11 -126 0
-85 -26 151 0
-196 -10 199 0
83 54 142 0
-197 146 11 0
-42 -54 -113 0
-79 -69 52 0
-2 -185 151 0
173 116 29 0
132 -2 -124 0
-32 159 102 0
20 -82 -174 0
168 57 135 0
-23 -68 -29 0
124 -7 78 0
150 142 49 0
-27 -32 13 0
-143 -23 47 0
81 -177 100 0
-55 -176 19 0
-109 -130 -152 0
-86 -111 150 0
-125 -192 19 0
113 -72 194 0
-64 -118 -198 0
-7 24 128 0
58 -198 54 0
137 -150 -1 0
-185 -54 -28 0
99 -143 -55 0
-166 -66 190 0
-63 78 -50 0
109 181 -150 0
-149 -171 -100 0
-8 -102 178 0
-118 6 5 0
148 -157 198 0
-47 99 21 0
-155 -74 167 0
-98 185 -174 0
-52 -64 22 0
-139 45 171 0
156 185 -50 0
-142 -42 16 0
90 177 -13 0
-5 31 184 0
37 -30 79 0
-73 -156 154 0
9 177 101 0
-78 64 135 0
-39 17 72 0
75 -71 186 0
-1 143 -6 0
-12 67 92 0
86 -47 -55 0
50 -173 -34 0
-152 113 54 0
-197 8 20 0
-186 -89 3 0
160 151 -23 0
-104 17 -146 0
-48 -28 196 0
133 -195 -156 0
181 -97 178 0
104 -81 72 0
130 10 83 0
-97 -87 166 0
-130 -137 32 0
