p cnf 100 426
49 79 -27 0
92 -34 -14 0
-64 -53 44 0
27 68 18 0
4 50 46 0
-56 57 -29 0
63 24 -36 0
-32 63 -47 0
79 61 53 0
55 -21 22 0
48 -16 3 0
-53 75 17 0
-43 15 19 0
-17 -97 58 0
-30 -95 -41 0
-28 -33 88 0
74 -15 39 0
-1 24 19 0
-71 -89 90 0
-45 -64 93 0
-15 67 38 0
-30 84 79 0
88 19 -100 0
-20 -89 8 0
9 -92 51 0
-51 -26 -53 0
67 55 26 0
-20 -4 -7 0
65 35 -17 0
70 -27 -97 0
49 -3 -66 0
-52 64 93 0
-2 -43 82 0
56 -77 -18 0
-36 73 92 0
-34 80 -48 0
-28 -48 -7 0
10 14 43 0
-68 -92 -89 0
-7 -28 -68 0
95 5 37 0
35 31 -9 0
-10 88 -28 0
-14 36 66 0
46 -65 7 0
52 67 41 0
58 -71 -34 0
20 -60 -85 0
72 -83 91 0
-14 47 -67 0
-55 15 -11 0
-57 -46 -75 0
21 53 9 0
4 43 69 0
70 9 -76 0
70 48 32 0
-84 76 99 0
52 -85 -19 0
43 72 -6 0
-55 71 -63 0
100 -26 1 0
-60 23 -62 0
83 -29 -33 0
91 -8 22 0
-39 55 -14 0
-25 -1 69 0
93 -2 -82 0
-92 22 -62 0
-97 -15 16 0
17 -89 94 0
1 100 78 0
-10 7 19 0
87 -38 63 0
-95 -85 62 0
-61 -13 -97 0
-55 -16 87 0
47 -91 79 0
59 -53 -38 0
68 31 25 0
92 -47 20 0
-18 87 -49 0
80 -26 -89 0
-98 -34 32 0
47 89 37 0
-15 -43 64 0
-43 5 96 0
20 54 2 0
72 74 92 0
-44 -77 59 0
-41 37 65 0
12 -77 24 0
12 -33 -50 0
-53 -82 50 0
20 -3 27 0
18 85 -53 0
40 -51 -69 0
-22 93 64 0
-5 89 -95 0
86 -7 -12 0
41 -12 76 0
19 -64 -15 0
83 90 -93 0
-84 -28 -49 0
2 12 8 0
77 76 31 0
-1 40 -69 0
-30 43 -90 0
-77 97 -24 0
7 34 91 0
32 -99 -54 0
-66 -11 18 0
-9 -45 -98 0
-33 -99 -59 0
29 10 -12 0
-28 87 -100 0
64 -26 -78 0
-13 -72 75 0
55 78 -30 0
-83 4 97 0
-62 89 -13 0
-17 -85 68 0
-31 -56 70 0
12 -94 -84 0
-59 52 23 0
-57 -66 -89 0
58 83 -51 0
-22 -24 -71 0
69 -78 1 0
41 73 -69 0
62 -60 -20 0
-49 38 -4 0
95 -69 -4 0
38 -16 -99 0
-43 -62 -71 0
-18 76 46 0
-69 -57 11 0
-55 6 8 0
92 -78 -24 0
-67 58 -72 0
-7 -81 -30 0
-3 16 -14 0
9 -83 65 0
-22 74 -97 0
45 -20 24 0
-27 16 -82 0
2 -64 -82 0
-23 50 -84 0
74 -58 -47 0
-37 4 -90 0
12 83 -98 0
-77 -48 53 0
-93 -49 70 0
39 33 48 0
-49 -84 -55 0
54 -46 66 0
-26 38 -72 0
-46 -84 -71 0
-64 -28 -56 0
-31 -20 4 0
-68 -61 1 0
21 -99 -84 0
85 -84 -33 0
-77 89 44 0
-93 40 -41 0
77 23 -69 0
2 7 -59 0
-78 -98 26 0
-95 -63 19 0
-45 86 -81 0
4 -9 54 0
46 -5 87 0
44 -3 85 0
44 30 9 0
-88 -87 -30 0
98 -43 -25 0
-15 -19 31 0
22 52 46 0
71 56 -87 0
-15 89 -7 0
71 92 -87 0
34 81 -97 0
81 11 75 0
39 -45 -46 0
90 5 -98 0
14 54 59 0
18 12 -86 0
93 98 -96 0
23 97 55 0
84 -57 -51 0
55 -74 30 0
31 80 -77 0
8 40 -43 0
-76 70 -19 0
93 -54 -57 0
-98 -28 -36 0
72 68 -5 0
85 38 -84 0
32 -52 39 0
23 93 31 0
99 48 -57 0
15 92 43 0
-34 -25 -11 0
32 -56 79 0
-5 -88 -84 0
-62 16 87 0
-88 -75 -15 0
-50 44 9 0
-15 55 19 0
-65 63 30 0
-71 32 51 0
28 87 -59 0
-46 18 73 0
-83 -38 -45 0
11 48 26 0
-23 1 -17 0
-32 72 64 0
-40 82 45 0
52 58 -98 0
-35 -2 78 0
-88 89 59 0
92 93 -19 0
-6 -10 32 0
10 7 97 0
8 13 70 0
69 -85 71 0
99 -71 -95 0
87 -50 67 0
-54 -2 -31 0
-84 -90 -62 0
-60 96 66 0
62 24 6 0
-90 -92 -13 0
59 -15 -56 0
-4 -84 86 0
-28 59 1 0
100 75 -97 0
-47 34 54 0
-44 50 15 0
-31 -57 -58 0
-87 -65 54 0
46 52 -14 0
100 57 70 0
27 -59 -13 0
96 37 -6 0
-92 -98 37 0
51 49 23 0
38 88 -15 0
-88 39 23 0
-66 -30 -15 0
27 -54 34 0
49 -69 73 0
-3 -28 49 0
4 -36 -70 0
30 -52 -94 0
-74 -24 -96 0
-77 15 85 0
43 77 29 0
49 96 -88 0
22 17 -66 0
3 -12 -69 0
-52 84 -7 0
-68 -79 -94 0
-74 62 -37 0
41 21 18 0
53 -43 -54 0
-69 -85 14 0
-10 -64 -28 0
-91 41 53 0
13 -22 -77 0
-58 23 96 0
40 -78 -53 0
-12 -74 -28 0
-75 -7 -51 0
-15 98 27 0
-64 -45 25 0
29 89 -25 0
-10 61 -79 0
-97 -6 40 0
87 21 -77 0
43 65 -29 0
-31 -88 -77 0
-20 62 -36 0
-19 42 100 0
-35 9 -77 0
-9 -81 -95 0
-64 54 -23 0
24 91 -25 0
-51 30 74 0
-27 93 99 0
50 28 -100 0
-61 -77 -52 0
-80 -6 84 0
75 69 -60 0
-72 96 79 0
-62 82 -100 0
-12 54 52 0
-80 61 25 0
-18 -16 -62 0
91 24 40 0
-35 -13 -89 0
-30 8 -53 0
-56 41 -40 0
84 40 -38 0
-35 20 -86 0
32 -97 48 0
45 -90 12 0
-9 44 -54 0
37 14 -40 0
91 9 -25 0
-18 -39 -42 0
-66 -23 -50 0
10 4 -83 0
-24 96 -74 0
23 31 -62 0
-55 -77 23 0
-69 50 12 0
-70 97 -25 0
30 -40 17 0
-1 -49 55 0
-53 -25 -26 0
30 31 -33 0
95 -68 -49 0
-65 -56 100 0
32 -94 -72 0
71 43 44 0
3 -74 -45 0
-67 -80 -48 0
-81 -2 -32 0
55 -37 -42 0
61 52 -43 0
67 -26 -1 0
-36 18 -71 0
-37 95 94 0
-56 -58 76 0
53 -90 -14 0
56 75 7 0
11 -4 -98 0
92 58 14 0
56 94 -42 0
-65 55 -3 0
-34 73 -93 0
-48 -79 82 0
-36 -42 -98 0
-53 91 74 0
-6 18 92 0
72 -56 -10 0
43 58 16 0
-8 -88 -31 0
-55 -96 23 0
-10 81 -53 0
-74 -32 -98 0
86 50 26 0
11 -3 99 0
74 -49 -77 0
27 -1 -98 0
19 -91 -63 0
7 28 -50 0
96 -55 28 0
-77 -34 -52 0
92 32 -30 0
26 29 48 0
-96 -7 -58 0
39 -36 46 0
53 18 -50 0
-90 -6 -66 0
78 63 -64 0
-48 -79 -35 0
65 92 43 0
-96 -59 -33 0
31 -61 50 0
-34 20 3 0
11 40 77 0
-41 -97 61 0
-80 -76 8 0
-36 95 5 0
-65 -20 31 0
-68 43 84 0
24 26 -87 0
-81 -88 86 0
-60 4 -74 0
-40 -75 97 0
-77 -89 -98 0
-41 -11 12 0
-28 96 58 0
40 -94 -61 0
-98 -83 53 0
60 -94 -75 0
-50 71 19 0
18 -48 52 0
68 -83 -80 0
-89 -30 1 0
55 -37 -3 0
80 69 55 0
-46 -9 28 0
-40 63 -58 0
-12 -33 59 0
59 39 17 0
-14 3 -96 0
65 62 83 0
-96 88 90 0
64 62 39 0
-47 10 65 0
-48 -26 -35 0
69 -11 -45 0
69 47 -82 0
-42 44 -80 0
-39 91 87 0
71 -49 -43 0
15 -49 59 0
27 -13 -76 0
-12 -71 -92 0
-69 9 34 0
-78 23 -40 0
-48 74 -60 0
-7 76 -95 0
20 -61 25 0
52 12 -26 0
-47 26 7 0
8 40 38 0
-92 -13 7 0
-79 71 39 0
95 -91 56 0
-39 16 -72 0
-19 -53 79 0
-8 -54 -40 0
-14 -3 -54 0
