p cnf 100 426
92 -42 90 0
73 -67 60 0
-53 45 17 0
15 -53 -94 0
-19 -61 26 0
99 93 100 0
-46 100 -72 0
9 -60 -38 0
-47 -57 33 0
20 -54 -68 0
56 5 -96 0
-92 -33 -39 0
23 -41 -30 0
-39 52 18 0
57 36 -91 0
-46 11 -47 0
94 -2 -77 0
42 -14 -6 0
-86 77 14 0
-13 60 -100 0
88 3 -19 0
-88 50 -7 0
52 92 -80 0
-35 -90 -11 0
86 18 -24 0
73 -46 -8 0
90 7 -11 0
-24 -45 84 0
80 44 -5 0
-13 -98 57 0
-71 -7 46 0
-4 30 86 0
-51 -37 -87 0
-2 27 89 0
17 -5 -28 0
98 37 -9 0
13 -29 -84 0
-70 46 45 0
73 44 19 0
-53 63 73 0
74 -55 -71 0
-62 -34 -6 0
-65 -35 -89 0
-85 25 -73 0
48 29 3 0
21 43 42 0
2 10 64 0
51 -24 37 0
-8 -81 -24 0
-29 40 -43 0
-5 -74 -6 0
6 -46 -32 0
53 66 -33 0
12 -50 -51 0
1 -37 -87 0
-43 -97 73 0
73 -24 -12 0
40 -22 51 0
-86 23 2 0
67 -24 -10 0
89 77 17 0
-45 -21 29 0
56 -90 -22 0
-22 -9 46 0
74 63 93 0
-14 99 15 0
-71 11 -94 0
-89 61 -22 0
-6 -91 -7 0
-62 -69 98 0
-71 -49 -78 0
23 -66 -36 0
85 -13 66 0
-1 -7 -23 0
-81 30 18 0
36 63 -84 0
68 -96 -15 0
74 78 91 0
81 -95 -2 0
36 -92 90 0
-57 64 -46 0
32 -48 -92 0
65 12 54 0
-26 1 -88 0
77 30 -57 0
13 -79 -69 0
84 -21 -77 0
96 -10 61 0
-21 75 -96 0
-4 -34 -32 0
9 80 50 0
26 -16 54 0
-72 -48 54 0
97 6 50 0
74 66 -51 0
100 98 -33 0
51 -26 -88 0
73 -54 45 0
-59 25 17 0
-16 12 -38 0
86 -18 -95 0
35 -87 -20 0
6 -69 -95 0
-80 13 -95 0
93 -40 -92 0
-34 -29 -26 0
-93 37 59 0
8 47 -69 0
5 -89 31 0
86 68 -64 0
-48 -60 -100 0
-35 64 -43 0
-93 -35 99 0
26 -47 -31 0
-35 -51 -50 0
-9 56 27 0
-37 -48 -3 0
80 40 -66 0
-77 19 42 0
39 -58 24 0
36 -18 -31 0
35 -24 50 0
-86 34 -84 0
21 54 15 0
-92 8 -58 0
-29 14 -88 0
-94 -16 -64 0
19 -16 11 0
72 36 -41 0
36 -95 -23 0
-34 -35 88 0
-64 -25 -83 0
-87 -4 -89 0
19 29 57 0
88 42 53 0
-8 -83 6 0
20 -57 69 0
-84 67 -85 0
-62 88 23 0
60 85 25 0
-74 89 16 0
81 89 12 0
-16 26 49 0
-100 51 -23 0
-74 -93 81 0
93 -48 -79 0
28 -31 -19 0
-57 -30 -90 0
23 1 -37 0
29 46 -17 0
5 61 -51 0
6 66 -24 0
-98 65 21 0
2 63 -16 0
-71 -29 72 0
-12 -64 -86 0
-98 -34 69 0
42 57 -97 0
28 89 -20 0
-3 82 -14 0
-45 -72 -86 0
-86 88 -81 0
52 -8 -49 0
-44 -28 48 0
-82 93 -62 0
15 -69 8 0
14 31 -1 0
-40 99 16 0
-85 10 -29 0
66 -37 -85 0
85 -47 -50 0
6 47 41 0
81 85 -9 0
-10 73 99 0
3 -73 -86 0
28 76 -42 0
-8 62 1 0
21 -86 2 0
18 94 -85 0
-74 -32 -97 0
-60 69 -73 0
67 61 -28 0
-30 11 78 0
50 -87 -98 0
68 -69 80 0
-82 -27 -81 0
-40 -26 15 0
-40 -25 -4 0
82 43 24 0
-76 -9 46 0
-49 35 -37 0
62 1 -92 0
60 -51 40 0
52 39 74 0
12 54 -26 0
5 33 43 0
90 -29 61 0
-35 -73 55 0
-15 82 -73 0
29 42 27 0
2 23 48 0
53 87 27 0
-41 -79 -38 0
-73 98 43 0
85 56 32 0
38 96 29 0
40 -79 -16 0
-97 -78 32 0
75 -58 -37 0
-34 -3 -68 0
22 19 29 0
-78 93 -62 0
-69 -83 -99 0
13 32 -21 0
74 58 -17 0
98 -6 -62 0
-25 37 81 0
75 17 100 0
-36 73 56 0
-93 -79 29 0
95 46 -14 0
-60 -43 -51 0
25 -43 75 0
-1 72 -56 0
-28 -9 34 0
90 42 51 0
70 71 -48 0
-25 -53 21 0
32 25 40 0
84 -14 -3 0
-54 -65 95 0
-70 -4 -5 0
-41 91 -19 0
7 -20 84 0
37 -9 60 0
41 -8 -20 0
-7 21 72 0
24 -58 -97 0
-21 26 -18 0
2 18 -3 0
28 27 2 0
-60 57 -9 0
59 47 -2 0
-79 45 -97 0
23 36 -83 0
-23 -30 -95 0
22 -31 -4 0
17 6 -70 0
75 95 99 0
21 -85 17 0
-93 -53 -34 0
-14 61 -83 0
-53 -14 -80 0
34 -7 -50 0
57 20 -87 0
9 24 -20 0
89 -44 -50 0
65 93 95 0
-25 58 74 0
-17 11 12 0
-66 -6 -31 0
-96 -79 -7 0
59 7 -63 0
29 -77 -20 0
33 89 -46 0
98 15 -64 0
50 -96 33 0
3 47 38 0
-87 -42 -88 0
-25 -95 1 0
-38 -39 57 0
-67 -64 66 0
60 3 -22 0
99 -65 -88 0
25 -88 -58 0
-51 55 -82 0
95 41 -54 0
61 41 22 0
54 11 -52 0
18 -4 84 0
76 -37 -15 0
99 -53 28 0
86 90 75 0
93 -20 -83 0
86 98 24 0
34 -80 66 0
25 -27 -93 0
-6 -35 -74 0
21 -9 83 0
-23 -10 -48 0
-15 -92 -48 0
69 64 -52 0
15 -68 42 0
-40 -97 18 0
-50 -23 73 0
82 68 62 0
95 -50 82 0
40 100 96 0
38 85 -24 0
19 23 -10 0
-6 -37 -21 0
15 -37 -94 0
99 -90 15 0
-98 -53 76 0
-89 -68 13 0
95 -71 3 0
-3 -95 89 0
45 26 -96 0
25 13 -1 0
-35 -32 68 0
46 71 -89 0
-22 -85 100 0
51 -69 -90 0
-32 -30 23 0
-65 -79 50 0
62 53 96 0
-81 70 97 0
-14 -32 56 0
-10 -25 20 0
29 -92 -78 0
-94 29 -45 0
9 -68 -62 0
-90 3 52 0
-84 -6 -55 0
-22 -1 82 0
-84 -35 32 0
57 -53 15 0
-76 -54 -75 0
39 -45 85 0
-92 94 -20 0
-52 -69 50 0
13 18 -42 0
73 -21 -44 0
-81 -82 -2 0
75 -78 3 0
-80 -53 55 0
57 74 80 0
-77 59 -40 0
88 80 -74 0
-25 78 65 0
-37 59 67 0
-75 69 -14 0
4 -34 38 0
-82 66 51 0
5 21 52 0
-38 71 -78 0
35 69 33 0
-72 -70 -74 0
-43 -62 40 0
77 -95 -61 0
-71 45 54 0
58 48 -2 0
-93 50 -98 0
-100 77 -46 0
46 50 -38 0
-57 -70 86 0
-73 -7 -65 0
84 16 -68 0
-5 4 15 0
89 -16 7 0
-33 17 77 0
-86 -44 -55 0
-48 22 -39 0
-17 -15 42 0
-62 -18 41 0
24 16 -78 0
83 85 38 0
-62 -50 39 0
77 29 -56 0
30 69 29 0
-18 37 43 0
-77 8 -1 0
-12 9 -92 0
19 82 60 0
83 70 94 0
87 42 -71 0
22 -88 45 0
15 -65 42 0
-8 -44 7 0
77 12 34 0
98 -47 82 0
-68 94 -96 0
-60 -16 -46 0
59 -26 34 0
-43 30 63 0
68 -28 -54 0
-31 -83 67 0
-5 -66 -61 0
-72 9 46 0
2 37 72 0
-24 16 -57 0
28 -42 -94 0
-7 13 66 0
62 25 38 0
62 57 -96 0
76 -9 40 0
-78 -74 33 0
-44 -7 79 0
-5 -15 7 0
-74 -3 -69 0
-44 -21 13 0
67 38 37 0
66 -100 -67 0
86 79 93 0
48 -100 63 0
67 -17 95 0
-10 -57 -96 0
-85 81 -10 0
-82 78 -58 0
97 -75 -68 0
13 -35 27 0
51 -67 -14 0
27 68 -65 0
100 -11 74 0
-69 11 36 0
-3 -95 -80 0
-74 81 -22 0
-48 41 19 0
27 -29 48 0
65 -69 -97 0
2 99 86 0
96 -16 74 0
-69 17 -74 0
41 45 -16 0
-89 -68 -42 0
92 16 6 0
