p cnf 150 639
27 -146 18 0
-64 117 15 0
-136 26 75 0
8 21 150 0
-21 -8 30 0
-114 58 -24 0
-17 119 -71 0
-93 -107 8 0
27 114 -55 0
12 -22 2 0
44 -106 -41 0
-41 67 4 0
-98 -86 -70 0
-14 -44 81 0
-88 -139 11 0
-143 8 9 0
-81 -63 18 0
105 -15 39 0
-71 127 -125 0
66 129 86 0
70 -44 -46 0
100 68 -129 0
-126 -87 67 0
128 -28 -30 0
-98 15 95 0
-128 85 91 0
-126 141 98 0
-70 -75 24 0
-36 67 -38 0
-136 -138 16 0
-32 -59 -113 0
46 -106 -131 0
12 76 -37 0
130 -30 76 0
98 138 21 0
20 -68 57 0
58 120 101 0
-65 32 118 0
127 -111 4 0
29 138 2 0
65 46 130 0
-27 136 110 0
-110 -125 34 0
46 -142 60 0
3 39 29 0
94 125 -137 0
-72 14 -135 0
-12 -89 -150 0
101 137 -139 0
88 104 34 0
4 144 -139 0
-10 18 104 0
102 -62 -118 0
91 28 82 0
20 -112 -106 0
-89 -139 102 0
14 -34 -93 0
-49 37 -16 0
-93 -12 141 0
-69 -5 -113 0
-144 -128 25 0
-74 -31 15 0
-83 -139 -75 0
-62 -145 60 0
-16 -58 81 0
137 -128 -10 0
-63 121 96 0
-14 81 142 0
-33 126 136 0
-68 95 -30 0
-13 -83 -31 0
126 -85 -77 0
1 139 73 0
131 43 129 0
81 -58 -48 0
-93 -19 82 0
85 41 65 0
131 122 89 0
31 136 -69 0
75 -27 -33 0
-127 -67 11 0
-85 -110 149 0
-40 122 -105 0
144 147 150 0
-52 -11 146 0
-53 13 97 0
12 -113 -21 0
-53 123 77 0
-18 146 57 0
49 111 -77 0
-50 -22 -79 0
-72 96 108 0
-140 -150 82 0
60 -28 137 0
-106 -59 62 0
-3 72 -40 0
133 -135 62 0
-38 -84 7 0
5 67 -2 0
140 112 98 0
128 40 100 0
130 -108 110 0
125 -50 -136 0
-38 52 49 0
24 149 139 0
-120 -93 26 0
-1 -145 -130 0
106 -49 -104 0
-130 -18 109 0
-97 -103 -130 0
41 -125 13 0
140 -69 97 0
20 116 -35 0
117 114 3 0
-55 -68 -144 0
-89 -67 -66 0
12 70 -137 0
-82 139 -97 0
35 100 -16 0
-130 -8 109 0
15 -82 148 0
-7 136 -128 0
-114 -135 45 0
62 -113 -28 0
136 -128 6 0
-82 125 -139 0
113 52 -20 0
-123 87 -100 0
71 65 -64 0
-41 116 -58 0
123 -105 -112 0
-113 134 -71 0
30 86 114 0
-30 -125 131 0
-33 81 88 0
144 -109 -103 0
15 -119 42 0
-70 12 -111 0
-67 27 -59 0
-60 -143 -105 0
-35 -52 138 0
40 -92 65 0
-145 106 111 0
-96 128 -69 0
-52 -126 -21 0
106 38 -124 0
9 14 -20 0
-100 10 -150 0
10 -146 22 0
92 83 -80 0
10 -14 25 0
-103 -34 -126 0
41 -2 81 0
-141 147 -130 0
-51 15 128 0
-102 96 -103 0
-16 137 104 0
-127 24 -55 0
92 9 -6 0
108 -66 63 0
-106 -87 -36 0
16 -82 -50 0
68 -21 -106 0
-91 50 141 0
-144 -127 82 0
18 -89 -83 0
-43 59 -13 0
-71 60 -6 0
-35 127 -118 0
59 38 80 0
128 -73 14 0
-117 -34 -68 0
124 -39 131 0
-3 -105 -116 0
6 9 -147 0
-131 43 -149 0
-34 32 -33 0
121 -13 47 0
-94 121 -145 0
136 -67 -59 0
-90 30 38 0
-68 71 15 0
6 -107 -56 0
-75 -62 -83 0
-69 84 -6 0
32 -40 -134 0
-47 101 -79 0
21 82 -66 0
-150 56 119 0
95 8 -114 0
6 103 34 0
46 66 52 0
127 135 14 0
62 -113 133 0
49 -112 -50 0
77 -93 -71 0
-140 58 -130 0
146 -40 -135 0
-5 26 108 0
148 81 -43 0
140 127 26 0
-53 -19 115 0
55 77 127 0
109 -25 119 0
6 12 -44 0
-145 -92 -134 0
15 2 90 0
132 -14 108 0
-56 127 -99 0
-120 -148 43 0
99 -48 -46 0
82 -50 23 0
67 -53 138 0
-84 115 -50 0
-65 -69 -30 0
81 148 99 0
-72 -2 148 0
-127 115 -20 0
106 136 85 0
29 -139 40 0
-8 50 23 0
-5 123 -91 0
-96 107 110 0
-104 -118 -97 0
14 70 61 0
48 101 96 0
95 108 102 0
36 123 78 0
-134 -84 6 0
-63 14 -77 0
-31 -80 -125 0
-97 -86 57 0
-4 -83 53 0
1 -126 136 0
-149 -52 16 0
91 -15 123 0
32 -102 14 0
85 148 -16 0
-147 -121 114 0
148 -73 -106 0
13 141 119 0
39 -131 57 0
133 -80 -121 0
-130 40 -66 0
-136 -101 138 0
-65 129 -48 0
10 146 113 0
86 -91 -5 0
-56 -99 116 0
-84 -98 115 0
-5 138 41 0
-104 79 31 0
84 -15 -146 0
-56 28 96 0
138 -22 -58 0
-94 -28 132 0
149 6 7 0
-111 79 73 0
140 -17 -85 0
-40 127 -144 0
-19 -42 112 0
-129 -110 -13 0
75 -79 -21 0
100 25 27 0
72 -42 1 0
-8 88 133 0
3 -66 -123 0
83 124 46 0
51 -22 -94 0
-24 -115 89 0
-39 80 78 0
-26 -70 89 0
93 20 -147 0
104 -60 55 0
-38 114 -125 0
148 79 -43 0
93 95 -68 0
-47 24 62 0
-87 -123 -104 0
-95 -27 54 0
-95 64 41 0
130 56 -127 0
82 39 -57 0
25 -53 -146 0
111 84 112 0
58 -96 -5 0
-84 134 -12 0
-75 -11 -122 0
-48 -94 -89 0
-116 6 -110 0
130 -119 56 0
138 35 -108 0
22 105 118 0
-51 -35 116 0
-77 25 -74 0
-98 140 -131 0
-23 -61 113 0
135 8 -86 0
-141 -20 -46 0
-100 85 116 0
-125 100 70 0
-84 99 -40 0
-53 -72 -105 0
34 -145 99 0
-144 97 -12 0
52 -68 -88 0
-136 -52 133 0
-38 150 133 0
48 125 -130 0
-15 -63 108 0
86 107 -46 0
77 19 -36 0
-150 -1 -141 0
99 -8 135 0
-26 73 45 0
63 -106 -131 0
-130 74 -67 0
-125 35 -29 0
-127 -107 55 0
19 20 -130 0
-77 -62 -12 0
-125 -85 97 0
143 -32 -9 0
-72 -119 -43 0
59 27 -32 0
113 80 -100 0
28 35 -19 0
-5 -79 46 0
-81 -135 -140 0
43 -7 107 0
89 34 -117 0
-146 27 -3 0
-5 -18 -118 0
-17 58 102 0
-5 -20 56 0
-145 144 24 0
-71 100 22 0
-120 127 -37 0
-73 -94 -13 0
112 -53 90 0
29 103 48 0
80 148 70 0
93 20 87 0
102 -114 -52 0
39 76 -1 0
87 146 -108 0
-57 -99 -58 0
124 72 52 0
130 -5 3 0
37 97 125 0
133 62 -32 0
5 -58 -148 0
93 -131 -75 0
16 -26 -129 0
36 55 44 0
134 141 -2 0
125 90 -9 0
-149 42 -100 0
6 72 103 0
-38 -132 -73 0
-89 -109 -138 0
128 43 -3 0
-143 -125 21 0
87 -59 73 0
75 -37 -121 0
76 87 -56 0
-91 4 -144 0
5 110 -150 0
-109 -66 -35 0
53 -106 24 0
134 -41 67 0
111 -77 114 0
113 -76 29 0
45 -93 44 0
-21 49 66 0
-48 140 -8 0
-126 95 69 0
-115 10 90 0
-30 115 -49 0
-104 -27 -7 0
140 -42 150 0
-28 -35 16 0
72 105 -123 0
-98 -44 -85 0
15 -20 -79 0
149 -145 -40 0
149 44 -132 0
86 -28 65 0
86 -37 -3 0
-139 105 -87 0
32 145 -136 0
53 -11 87 0
-4 139 -58 0
-75 -5 27 0
-103 -37 -17 0
-85 -4 126 0
-91 -125 76 0
-72 -7 112 0
80 64 131 0
-79 -63 30 0
96 106 -127 0
42 145 97 0
-122 -56 43 0
-11 -49 21 0
-104 83 -28 0
-79 49 -6 0
-60 39 -148 0
141 22 -111 0
23 150 -27 0
-48 61 -110 0
-56 119 -64 0
135 68 -50 0
-124 31 112 0
28 -74 119 0
-53 -66 -119 0
89 -80 -31 0
-107 -79 116 0
-26 -102 132 0
60 -122 -5 0
69 58 -141 0
-94 -122 130 0
-111 3 -133 0
-68 18 -131 0
-34 73 -103 0
44 111 17 0
-140 118 56 0
-68 -145 50 0
-35 -39 52 0
-2 -59 -1 0
59 71 146 0
106 66 -149 0
105 143 -25 0
-34 -42 125 0
-20 -94 89 0
129 137 64 0
125 17 -105 0
19 122 -134 0
80 -4 -121 0
136 -131 19 0
-23 107 -124 0
-63 -114 -57 0
-146 -58 -15 0
48 115 133 0
-82 -63 108 0
45 11 -113 0
26 -22 -88 0
-41 60 -14 0
17 148 72 0
-20 39 144 0
-27 41 10 0
73 141 115 0
115 140 -143 0
-34 116 118 0
-49 85 -17 0
150 13 110 0
-106 -141 65 0
-63 -64 122 0
22 130 70 0
-127 -135 93 0
87 -130 -60 0
132 -50 -113 0
43 49 97 0
-2 47 -90 0
-40 31 123 0
-143 -140 -19 0
60 113 106 0
58 131 8 0
-41 -112 141 0
-82 -31 4 0
-119 -1 127 0
53 21 61 0
121 -94 75 0
104 96 115 0
-97 -55 -39 0
127 -1 88 0
-81 -123 -54 0
-73 30 14 0
111 -98 -30 0
-18 88 50 0
-43 76 75 0
24 131 -22 0
100 -116 85 0
-101 5 -99 0
107 -6 -96 0
80 112 -103 0
-30 -132 120 0
28 -75 -6 0
135 114 -67 0
-31 -145 -62 0
-41 -54 6 0
-18 42 -22 0
-83 -85 -113 0
122 -48 -88 0
-143 125 -34 0
-108 -90 115 0
-19 95 28 0
103 125 117 0
-93 -149 52 0
99 -123 56 0
-85 -116 150 0
-79 -86 -68 0
-72 -77 53 0
115 104 -147 0
-100 -125 -70 0
-150 101 3 0
145 -21 77 0
-10 -74 14 0
72 48 118 0
-88 39 -123 0
-65 118 42 0
-82 -24 63 0
-2 -62 -115 0
8 -59 -81 0
-30 5 144 0
118 1 -121 0
56 -45 -83 0
-123 78 -101 0
124 18 -133 0
136 106 18 0
-144 101 54 0
51 -37 -105 0
-108 78 7 0
71 -146 125 0
-77 -69 -64 0
74 27 34 0
-139 -9 -20 0
-66 -130 -42 0
42 5 91 0
91 103 135 0
21 -44 56 0
-77 4 70 0
-117 -84 132 0
-109 133 -107 0
-123 115 147 0
-62 -85 -112 0
6 -24 142 0
-97 -22 -107 0
-148 94 14 0
20 -137 -79 0
-125 63 47 0
-66 -110 95 0
17 -33 16 0
106 117 45 0
-132 45 131 0
54 -86 55 0
47 -88 -111 0
-109 -1 -128 0
-64 130 73 0
-19 63 66 0
23 -129 -82 0
-36 -67 14 0
69 107 -90 0
-111 -28 25 0
117 56 113 0
31 81 -137 0
-65 -70 33 0
-5 -16 -150 0
54 -28 -148 0
144 -128 -63 0
149 7 -10 0
-54 48 -41 0
-94 -95 89 0
-38 130 -78 0
-114 -140 -57 0
149 -75 54 0
139 130 131 0
-48 -136 4 0
-131 63 -115 0
-144 -111 -93 0
-134 -75 -104 0
-116 75 88 0
-97 -120 1 0
137 130 115 0
-149 142 9 0
33 -12 -65 0
-119 -74 -54 0
-137 65 123 0
-39 -77 66 0
-123 61 -26 0
1 -31 -18 0
-126 -47 -19 0
-33 -111 22 0
108 71 -124 0
57 89 47 0
7 -140 -64 0
50 3 -2 0
135 57 -46 0
12 -16 127 0
-97 -69 54 0
-76 38 143 0
-36 55 -34 0
65 72 -122 0
-16 111 -117 0
136 137 43 0
-16 118 -42 0
-121 -137 12 0
89 -101 70 0
85 139 -95 0
-58 103 -119 0
-72 126 -22 0
-150 -56 -124 0
-81 -42 56 0
-55 50 -68 0
-140 -45 7 0
40 101 120 0
-112 75 23 0
-21 27 -121 0
-52 14 50 0
-122 -45 -100 0
-140 -14 -67 0
-4 -138 132 0
43 95 -129 0
-16 -102 -82 0
33 24 26 0
-28 1 -145 0
-117 -107 110 0
86 -39 108 0
-19 -4 -116 0
135 -111 71 0
75 -122 61 0
141 146 -86 0
88 -45 -82 0
-146 126 -124 0
-96 23 100 0
-42 64 123 0
-5 -91 -16 0
-90 -25 98 0
58 15 79 0
108 -20 -24 0
-89 59 130 0
149 -5 -112 0
83 -105 -102 0
7 -148 -137 0
56 -68 52 0
83 -112 -136 0
114 64 -73 0
25 109 -119 0
-75 62 6 0
-52 -36 -101 0
