p cnf 50 213
-40 -41 -43 0
-2 1 -35 0
18 -35 -19 0
12 7 -34 0
23 -18 26 0
16 -45 15 0
42 49 -3 0
-4 41 -1 0
-42 -22 -37 0
-3 -15 -14 0
-18 3 -5 0
-43 3 -12 0
-38 -10 -49 0
20 -11 37 0
-35 22 -25 0
-47 6 33 0
-15 -5 -22 0
-50 -21 2 0
-15 23 -36 0
-43 25 6 0
5 -6 -18 0
48 25 -21 0
29 24 49 0
29 36 33 0
-6 39 21 0
-50 -6 -47 0
-37 34 11 0
18 32 10 0
31 5 -24 0
39 40 13 0
26 -22 40 0
28 42 -39 0
13 31 21 0
48 -45 41 0
25 -18 26 0
-35 12 -44 0
-46 -14 29 0
27 44 32 0
-10 46 -28 0
-31 -38 -26 0
-27 35 -3 0
-35 39 41 0
-43 23 -11 0
-44 42 -26 0
7 -1 -17 0
45 37 -15 0
38 -45 33 0
19 -27 6 0
-20 -22 30 0
-7 29 47 0
-46 -8 -2 0
-11 -48 16 0
-28 -30 15 0
43 -28 26 0
38 28 25 0
46 -5 37 0
21 -13 30 0
41 21 39 0
23 -30 -40 0
-40 38 6 0
-8 -12 24 0
9 37 -25 0
42 12 36 0
-29 -40 4 0
-13 25 -36 0
27 46 29 0
49 15 19 0
-50 -30 -37 0
-8 -37 18 0
49 3 47 0
48 -42 49 0
17 -23 -6 0
-16 14 -48 0
-41 -28 -11 0
-4 -37 23 0
46 -19 -37 0
-44 -7 -9 0
-18 42 9 0
-21 16 49 0
41 18 -27 0
-50 6 -26 0
24 30 -32 0
-47 -6 -30 0
-35 -26 14 0
-21 19 -22 0
22 44 -49 0
-30 2 8 0
-28 -13 45 0
18 6 -42 0
42 11 -4 0
15 28 42 0
5 -9 38 0
-45 22 8 0
5 -15 25 0
24 -20 -9 0
42 -44 -10 0
-11 -29 23 0
27 40 -44 0
-9 49 -8 0
21 9 -16 0
-39 -47 -19 0
-43 -20 -14 0
-19 -42 4 0
25 -8 -16 0
1 -24 -21 0
24 35 -44 0
5 2 38 0
4 -26 -33 0
28 -45 -26 0
18 -6 -20 0
10 -35 -21 0
44 42 -5 0
-16 4 -6 0
-4 -20 43 0
46 9 45 0
34 47 -17 0
-18 47 -8 0
18 -34 -5 0
32 30 -33 0
-24 -11 -17 0
-8 15 -48 0
16 -3 31 0
-3 36 46 0
27 47 21 0
33 -44 -4 0
-26 -5 30 0
6 36 -30 0
20 48 -40 0
-50 -13 47 0
1 27 -2 0
-1 -22 -49 0
-7 14 -34 0
10 -46 -18 0
-34 27 -45 0
38 -7 33 0
-37 4 28 0
-21 26 45 0
15 -5 13 0
7 11 -29 0
50 14 29 0
-11 -44 20 0
-21 -10 6 0
4 -44 20 0
-26 29 36 0
9 -8 1 0
-13 -26 24 0
38 17 -5 0
-29 -9 6 0
3 -30 -4 0
26 32 2 0
-12 18 -29 0
16 -42 19 0
6 18 -25 0
-34 -16 41 0
25 -46 23 0
37 33 21 0
15 -2 50 0
-23 -50 38 0
-43 -16 -18 0
-49 -15 37 0
12 -16 38 0
-38 -2 -46 0
-37 13 32 0
4 -15 39 0
40 13 -9 0
21 -4 2 0
-8 34 -24 0
26 38 -7 0
-47 -28 41 0
-36 45 -40 0
-12 25 20 0
1 -45 -37 0
3 -12 -39 0
-41 37 -7 0
16 -23 21 0
-46 43 41 0
14 16 45 0
1 4 25 0
27 32 -25 0
-37 42 49 0
3 -19 2 0
11 -25 -47 0
-22 -39 40 0
-42 11 39 0
-14 -13 -27 0
17 43 19 0
36 32 10 0
43 41 39 0
41 19 -6 0
31 -32 43 0
24 25 12 0
15 -18 -37 0
-6 43 -23 0
-15 -36 4 0
-35 44 31 0
-26 -46 -3 0
44 -40 10 0
11 14 -13 0
28 -13 41 0
47 5 6 0
-18 34 -30 0
38 34 -27 0
-38 -49 7 0
-19 35 -23 0
37 39 31 0
39 44 -45 0
-45 -16 -4 0
2 -22 -20 0
44 -7 15 0
21 -18 47 0
14 -27 48 0
4 -33 11 0
50 34 -37 0
