p cnf 100 426
96 98 -85 0
-17 80 2 0
61 -49 -50 0
-43 -47 66 0
-44 -17 45 0
-35 11 -58 0
41 66 -15 0
32 10 -23 0
100 12 -10 0
-80 -10 -20 0
81 43 -86 0
26 -96 11 0
56 -88 30 0
81 68 -25 0
78 -91 -24 0
-8 57 -24 0
-34 19 70 0
98 10 -25 0
-21 51 82 0
82 -37 -28 0
-68 -1 84 0
21 9 -8 0
80 -97 -56 0
2 -96 -87 0
-47 -90 -88 0
94 -41 58 0
39 -98 63 0
-76 22 -6 0
-42 52 60 0
95 97 50 0
41 49 81 0
-85 23 20 0
51 61 20 0
21 39 -71 0
64 -56 21 0
-14 -9 42 0
67 64 28 0
21 -44 -81 0
77 -17 -68 0
-17 48 73 0
-54 -32 -27 0
-41 -82 -61 0
-43 -90 -25 0
-74 30 -91 0
-63 73 -61 0
-50 97 19 0
78 94 35 0
99 -36 92 0
32 29 -82 0
-72 19 35 0
69 -26 -83 0
-38 94 -8 0
37 -32 49 0
34 27 -19 0
54 -11 48 0
81 49 72 0
-36 59 26 0
17 -42 -3 0
-48 19 41 0
56 83 -42 0
5 -83 37 0
-66 8 93 0
9 18 -20 0
-12 97 47 0
97 9 64 0
-51 89 20 0
-21 15 98 0
83 -88 -72 0
-62 -6 -29 0
18 -65 -41 0
3 66 -98 0
54 -71 9 0
75 63 -1 0
66 -22 -51 0
96 80 37 0
26 97 -78 0
51 16 -84 0
-84 86 66 0
-50 14 -96 0
-95 -96 -39 0
39 -47 -60 0
33 28 -66 0
-43 27 64 0
51 78 -97 0
37 86 32 0
-4 -80 -7 0
-39 -57 49 0
48 28 -83 0
-10 36 54 0
16 -39 -19 0
-27 -16 82 0
61 -23 2 0
75 89 -72 0
9 94 -89 0
4 5 64 0
-2 -74 -6 0
91 -37 93 0
-35 -25 -31 0
-6 -73 -56 0
92 96 7 0
61 -70 -21 0
-70 19 42 0
-52 -48 60 0
-87 97 -64 0
-12 78 33 0
-60 -58 -97 0
44 65 -81 0
96 -21 74 0
-89 -51 -11 0
70 6 -67 0
86 -22 95 0
-15 42 -94 0
67 85 51 0
-97 14 -29 0
97 -25 -92 0
-14 -64 19 0
-97 -52 39 0
25 4 3 0
100 88 10 0
46 -85 52 0
48 -27 39 0
-79 -76 6 0
-45 -4 33 0
69 -99 -13 0
88 -63 -4 0
-12 61 -33 0
92 -81 13 0
61 -5 -42 0
28 -79 -53 0
-87 100 -4 0
-60 -36 -90 0
-93 -7 33 0
58 -38 21 0
88 20 10 0
-100 -96 84 0
-24 -29 44 0
-92 57 90 0
-17 95 78 0
-90 -56 3 0
70 14 -54 0
55 -9 12 0
-52 -65 32 0
21 12 -74 0
70 48 -72 0
24 75 53 0
-39 18 96 0
-2 -15 68 0
-18 -41 32 0
61 62 -28 0
-70 -10 19 0
-98 -9 -62 0
32 -81 -97 0
-34 53 8 0
-51 -4 25 0
-78 29 -96 0
-66 -53 83 0
-67 37 64 0
-9 -72 -11 0
6 48 -36 0
-44 -39 -69 0
61 -66 -63 0
-89 -72 -88 0
-61 -44 -12 0
79 81 9 0
37 -77 66 0
31 73 -25 0
67 -87 -53 0
-25 99 -79 0
-38 -25 -88 0
-27 60 -75 0
38 -82 -32 0
24 83 -64 0
73 59 69 0
-16 49 71 0
-33 -64 -59 0
66 73 54 0
63 77 14 0
-24 -16 47 0
-9 36 -14 0
96 -88 -55 0
-2 -15 44 0
-31 -30 29 0
71 -46 31 0
29 -22 -50 0
-12 -74 -95 0
-16 13 32 0
22 23 -29 0
-56 75 77 0
11 53 -92 0
79 -97 49 0
-87 -63 56 0
64 65 79 0
-19 -91 10 0
52 27 28 0
-38 30 49 0
-73 32 -83 0
50 74 45 0
58 55 12 0
34 -62 -21 0
-77 -68 26 0
-98 30 -12 0
71 -7 33 0
38 -19 56 0
40 -22 -67 0
74 -84 -95 0
-22 31 -3 0
9 -99 -13 0
-100 -60 71 0
24 32 2 0
3 65 8 0
-17 -31 78 0
-32 -59 23 0
78 97 6 0
-59 68 -63 0
-52 -68 60 0
-78 74 92 0
-53 22 65 0
-10 77 -48 0
49 39 -48 0
-28 56 -100 0
-98 96 18 0
3 30 -57 0
48 -27 60 0
19 82 13 0
50 84 -56 0
-71 -62 6 0
46 -43 25 0
-13 19 96 0
28 81 67 0
-79 59 45 0
-67 -75 16 0
-66 -5 -86 0
9 -20 -49 0
82 -35 19 0
50 36 51 0
-18 25 -54 0
-20 -55 71 0
9 21 5 0
60 22 87 0
-44 -79 -94 0
-34 -74 -72 0
-81 -86 -42 0
76 -67 -88 0
29 3 -56 0
64 -93 -52 0
-33 -14 19 0
-32 -60 -20 0
53 96 52 0
-21 -80 -62 0
-8 56 52 0
4 43 -48 0
63 51 76 0
32 -79 -22 0
11 -13 95 0
12 90 83 0
-5 18 -38 0
-90 46 -86 0
-43 13 5 0
-1 -25 22 0
-35 -76 -38 0
37 -18 9 0
100 -90 -66 0
-5 -51 -44 0
46 -66 40 0
31 40 86 0
20 -5 11 0
-58 17 20 0
-41 75 31 0
-83 86 -71 0
61 84 5 0
7 -5 33 0
51 -91 -42 0
91 -55 -85 0
-90 24 1 0
12 -63 43 0
-78 -64 36 0
99 2 -81 0
44 -1 -14 0
-28 -19 -43 0
-36 -68 -51 0
-79 -26 56 0
93 -76 71 0
37 -43 -3 0
-61 -54 60 0
41 76 -29 0
-5 30 86 0
68 -30 6 0
-1 -56 7 0
-70 -54 -3 0
-82 40 -99 0
-28 -69 -85 0
50 -72 93 0
88 55 11 0
-13 17 96 0
-33 54 21 0
13 -98 -37 0
-9 -10 20 0
-31 -9 100 0
23 15 -98 0
-100 69 -60 0
11 46 12 0
-33 -93 -3 0
99 12 -9 0
89 -69 -25 0
-4 44 -50 0
100 -52 28 0
76 -96 90 0
-85 100 64 0
48 26 -6 0
-3 86 -48 0
41 60 -11 0
99 15 -76 0
93 -98 -44 0
82 -41 32 0
-14 -8 -39 0
49 20 36 0
68 -47 10 0
4 37 42 0
-68 78 77 0
34 99 -43 0
75 11 -30 0
-97 -70 -11 0
-89 -70 39 0
52 -97 6 0
43 35 -95 0
-76 1 -14 0
52 -70 -14 0
32 -11 -43 0
14 -81 3 0
95 88 -66 0
-35 74 -94 0
-8 56 -28 0
38 -45 -18 0
-37 -35 -32 0
33 -83 78 0
-25 -96 -33 0
75 -16 86 0
-32 -96 6 0
-28 -36 -15 0
90 2 53 0
-93 83 16 0
85 -67 -88 0
19 -27 -50 0
85 32 63 0
1 -56 -60 0
96 59 -68 0
19 -37 36 0
-98 68 -9 0
-58 -26 -89 0
35 -21 62 0
31 -83 -63 0
83 19 15 0
-13 35 85 0
9 73 -14 0
-97 -86 -72 0
-24 81 -64 0
-42 99 89 0
62 25 -24 0
-33 -90 -35 0
78 73 46 0
-32 42 -6 0
69 -43 64 0
-10 14 -73 0
-27 -60 53 0
71 -57 92 0
13 -5 33 0
-36 -83 76 0
31 79 -16 0
96 81 98 0
-22 85 -97 0
28 -53 43 0
74 36 1 0
58 -72 -90 0
74 3 86 0
95 -6 94 0
-38 59 8 0
16 -93 -27 0
-88 -56 20 0
49 -1 -22 0
-54 14 11 0
-14 56 -30 0
-92 -72 -87 0
75 -43 -58 0
73 -28 -58 0
-36 -41 -34 0
3 -26 52 0
-12 75 15 0
-95 90 69 0
-84 75 -92 0
69 30 -17 0
-70 10 -31 0
-12 -34 43 0
-63 27 -18 0
67 19 -80 0
11 95 98 0
-44 -4 -5 0
89 4 -93 0
82 75 -11 0
-13 57 -69 0
78 4 93 0
15 65 83 0
-70 -19 77 0
67 -99 10 0
80 6 41 0
4 -6 -77 0
49 45 -82 0
68 20 52 0
-35 66 30 0
40 22 -74 0
81 61 -7 0
-79 -72 59 0
-80 -100 -82 0
17 9 8 0
51 -33 -68 0
-1 -34 -81 0
-71 61 64 0
-92 98 25 0
20 87 -9 0
-93 -22 -67 0
53 -39 -21 0
-17 -48 93 0
40 -100 -33 0
38 -81 50 0
38 6 -24 0
44 70 -88 0
94 3 86 0
