p cnf 100 426
-84 -52 -17 0
-10 -65 93 0
-96 70 -78 0
-51 -25 78 0
96 3 39 0
84 74 61 0
53 -72 -36 0
-32 -49 -3 0
98 70 -92 0
51 99 30 0
-40 -43 19 0
-22 27 63 0
-61 -67 93 0
64 33 53 0
-42 -89 73 0
-27 -97 72 0
84 31 -42 0
-95 94 11 0
17 -97 2 0
-57 15 -5 0
-68 -63 18 0
-38 -16 -56 0
-35 67 -42 0
-19 -38 -67 0
48 67 -78 0
96 -93 18 0
41 54 -23 0
40 90 25 0
13 8 80 0
-72 -29 45 0
55 -75 94 0
-33 72 -70 0
14 94 28 0
-67 76 -83 0
-76 -78 -36 0
61 27 22 0
79 19 22 0
-7 18 66 0
39 -65 98 0
50 -91 61 0
-11 -78 -28 0
-92 19 -56 0
-88 -16 72 0
-47 -60 99 0
72 -25 -49 0
-26 57 47 0
-13 48 33 0
83 -36 -62 0
-36 -81 -8 0
61 78 -81 0
-83 97 70 0
-92 -20 91 0
54 -16 8 0
-70 -36 25 0
87 -41 -91 0
-47 67 -2 0
86 -8 9 0
35 11 23 0
-65 -53 -23 0
40 36 -72 0
-90 12 -73 0
24 -94 -12 0
99 22 2 0
-93 -32 -40 0
-25 96 97 0
37 23 36 0
25 35 -26 0
34 12 -63 0
-67 58 -81 0
-75 50 -20 0
-45 83 -88 0
-65 71 -96 0
34 -28 -60 0
81 -24 61 0
-49 85 76 0
46 2 -21 0
13 24 46 0
3 -57 79 0
52 61 32 0
87 -52 39 0
65 14 -54 0
-76 -4 -21 0
-90 -68 26 0
-85 43 -7 0
45 59 51 0
23 39 40 0
12 -93 -32 0
1 62 -21 0
-90 -28 -61 0
98 -13 50 0
-99 -42 37 0
51 -69 -10 0
4 29 78 0
-65 1 79 0
30 18 64 0
44 50 84 0
87 -62 5 0
-51 88 67 0
-88 94 -13 0
-21 41 17 0
63 -84 86 0
34 -95 -82 0
65 48 -100 0
-47 -15 23 0
87 -11 -20 0
-34 -26 66 0
7 -60 37 0
7 77 -88 0
99 4 70 0
-58 -42 39 0
5 69 -95 0
-17 94 19 0
59 -89 -80 0
94 68 73 0
-19 -78 93 0
-93 -11 44 0
3 -24 -96 0
-56 -15 -25 0
-70 32 89 0
-98 -56 36 0
86 6 78 0
1 53 27 0
-35 -60 77 0
29 3 91 0
-92 -78 59 0
50 61 72 0
-57 20 -60 0
22 87 -50 0
-11 81 63 0
68 48 -39 0
-4 -20 -80 0
-54 98 -3 0
31 -49 -69 0
13 51 28 0
-21 -99 -100 0
46 -97 28 0
-47 -81 -14 0
-82 41 -65 0
64 -97 60 0
23 -52 -37 0
-84 23 -88 0
-54 -53 25 0
-80 -65 -11 0
42 -79 -32 0
-48 -3 96 0
66 -25 21 0
61 92 -26 0
27 -74 60 0
-31 23 -60 0
43 -21 32 0
5 -88 87 0
-50 -10 -54 0
-92 -100 78 0
62 93 -8 0
99 -6 -47 0
57 -55 -16 0
-75 97 -15 0
19 32 -62 0
10 59 91 0
38 89 57 0
-36 77 5 0
29 48 -73 0
21 -73 -82 0
20 -96 -89 0
33 82 30 0
75 -2 -34 0
-67 52 62 0
20 76 -65 0
-63 83 22 0
-49 2 86 0
-29 -20 36 0
26 -46 -64 0
-96 68 30 0
-81 13 -43 0
-95 69 -11 0
32 -33 -95 0
30 89 -92 0
-71 -36 -12 0
17 67 -39 0
75 -62 60 0
82 10 26 0
13 70 -76 0
-75 56 -15 0
-76 -82 79 0
53 77 -35 0
66 -37 83 0
-36 -87 72 0
97 -24 -63 0
64 21 23 0
-57 -44 82 0
14 -98 30 0
-68 -61 14 0
87 -20 -42 0
21 -79 -85 0
-84 77 -54 0
61 39 48 0
96 -41 -58 0
1 98 -52 0
18 -59 99 0
85 92 33 0
-49 42 72 0
65 57 36 0
62 -93 76 0
-85 -50 89 0
78 76 49 0
-69 48 57 0
-96 -10 -42 0
-20 -76 39 0
-42 74 -70 0
38 -89 -3 0
90 -92 -95 0
58 96 28 0
-43 26 -87 0
-3 18 -16 0
-7 -68 8 0
-56 5 -65 0
-37 -74 -43 0
-72 -100 -15 0
-12 -74 -60 0
-99 88 -56 0
95 20 -84 0
-59 -68 100 0
3 -52 74 0
2 29 42 0
-87 -99 42 0
-74 46 -92 0
27 -40 -24 0
-6 -100 17 0
41 30 85 0
-35 30 -28 0
57 -16 -49 0
27 49 7 0
49 76 -16 0
93 67 -16 0
-95 78 46 0
12 -65 -47 0
-3 1 -49 0
-46 47 -40 0
39 -30 90 0
-61 -3 36 0
32 -23 73 0
61 -98 -5 0
-85 -38 48 0
-23 -67 20 0
15 21 -4 0
34 80 42 0
-61 -5 95 0
-49 98 77 0
45 29 -12 0
60 -54 -69 0
1 -40 61 0
-85 -70 47 0
64 96 74 0
19 29 85 0
79 14 -32 0
-43 -91 -60 0
35 98 17 0
-95 5 96 0
26 24 -2 0
21 51 -42 0
25 -81 74 0
34 70 -57 0
44 -24 -33 0
-59 85 -13 0
-9 -47 55 0
30 -59 15 0
45 -40 58 0
-65 -24 -51 0
-19 88 -29 0
68 -77 -100 0
69 -47 -70 0
-48 -21 -13 0
29 -97 -92 0
-26 -36 7 0
67 54 -61 0
-1 -10 33 0
-94 79 77 0
-19 -62 -21 0
-32 51 21 0
-45 10 -29 0
-16 -93 95 0
-19 87 36 0
-40 -68 14 0
-57 -39 16 0
-97 -93 44 0
33 -15 -81 0
89 -63 98 0
-94 78 -77 0
64 -90 -56 0
36 93 -94 0
-54 86 33 0
63 -32 -75 0
14 -100 -91 0
78 -67 -86 0
83 -13 74 0
-75 87 91 0
-96 6 45 0
-67 -5 -52 0
-86 4 -28 0
-13 -38 -53 0
33 -46 88 0
58 -7 42 0
-21 -27 72 0
-52 97 45 0
-12 -43 -46 0
30 -41 -40 0
-41 -80 64 0
91 63 45 0
21 22 42 0
-65 -90 -83 0
51 80 -90 0
85 52 34 0
-18 -50 -14 0
-38 79 73 0
6 -32 71 0
-29 89 -32 0
19 2 -38 0
-57 -54 72 0
-67 -75 -52 0
-96 34 -91 0
-56 -48 47 0
46 -10 -89 0
32 -69 -75 0
-65 91 -61 0
-30 -93 -45 0
-29 60 -35 0
64 -76 56 0
58 72 -84 0
19 -9 88 0
-33 94 -4 0
-18 51 -28 0
-39 -43 -30 0
-19 -99 -70 0
-79 -7 -92 0
-10 -79 -9 0
-32 77 100 0
84 64 -94 0
74 90 -88 0
18 44 -24 0
33 64 12 0
83 -82 -11 0
-3 78 8 0
22 1 68 0
-73 48 -9 0
-24 69 -28 0
-20 -77 -48 0
99 -23 65 0
-5 69 16 0
-45 88 24 0
-25 -78 -20 0
-85 -71 -50 0
9 44 -32 0
25 -52 -6 0
-85 91 -97 0
-85 -84 -42 0
-67 51 97 0
58 -98 26 0
49 11 -63 0
79 -50 40 0
-88 90 -8 0
-40 -76 -96 0
95 -7 69 0
-46 -69 7 0
-66 -68 23 0
-28 -13 -59 0
10 -92 -27 0
-6 49 27 0
-31 -85 -43 0
48 -52 -6 0
-34 -55 -88 0
-27 84 95 0
-53 49 -36 0
-33 77 -2 0
-58 17 85 0
21 63 -9 0
-33 88 -92 0
37 73 -34 0
-26 12 -72 0
5 61 -62 0
-24 11 98 0
48 -57 95 0
-65 -99 25 0
-2 20 44 0
60 26 -83 0
65 9 -29 0
-57 -4 9 0
-21 19 -71 0
53 -67 -69 0
42 48 5 0
49 1 -73 0
29 -98 81 0
61 -74 83 0
96 31 -88 0
-82 59 -62 0
47 -29 -19 0
50 33 -21 0
19 -6 -59 0
52 -17 81 0
54 -59 94 0
44 -42 86 0
-28 -92 -25 0
-80 -47 60 0
83 40 -28 0
-58 39 100 0
-44 -71 21 0
57 -4 89 0
-96 -88 -73 0
26 20 -53 0
-98 -63 -41 0
81 5 87 0
7 -43 12 0
-20 28 -40 0
75 58 61 0
72 21 -20 0
-53 21 -72 0
-89 32 15 0
-97 6 18 0
-99 -3 -76 0
75 74 24 0
-86 -73 -45 0
-9 -23 -18 0
-15 86 -26 0
-11 46 -78 0
76 54 -22 0
67 4 -63 0
90 40 34 0
