p cnf 50 213
-50 28 37 0
30 -10 16 0
-28 -27 -21 0
-27 18 -19 0
26 16 -8 0
-20 30 -32 0
3 13 -11 0
18 -43 -36 0
-32 2 -4 0
-5 -27 24 0
47 -9 -16 0
-34 -43 38 0
6 -16 39 0
-38 -48 -25 0
14 -10 7 0
17 38 -4 0
21 35 28 0
-10 -24 31 0
-39 -3 -48 0
-43 16 -17 0
-24 44 8 0
1 -26 -17 0
-20 -14 -11 0
-50 42 27 0
-50 -32 31 0
-28 -7 11 0
-39 47 36 0
-4 -42 12 0
26 -13 41 0
-16 -34 -46 0
-39 44 27 0
48 -9 17 0
19 13 -6 0
-37 -15 -2 0
-41 15 -6 0
-11 -4 26 0
24 -11 37 0
30 -44 32 0
18 19 -48 0
-39 14 19 0
-10 2 19 0
-16 24 38 0
9 21 45 0
28 48 39 0
-22 -16 -31 0
-39 46 -48 0
-25 20 -26 0
3 -38 -12 0
30 -9 6 0
-8 21 -3 0
-18 48 -24 0
-40 49 17 0
-48 -32 -49 0
41 29 4 0
-31 17 -11 0
32 -3 29 0
-32 8 47 0
-19 -12 -11 0
-43 -38 -14 0
-37 12 27 0
7 -22 2 0
-24 38 7 0
46 -43 -31 0
-1 -22 3 0
47 37 -9 0
21 -4 48 0
26 -17 12 0
2 14 -11 0
42 -10 -8 0
20 -44 -39 0
33 13 32 0
-39 -28 -6 0
28 41 6 0
-15 -42 -44 0
42 34 -6 0
-31 -20 10 0
16 34 28 0
-3 33 7 0
47 -37 -17 0
-2 8 48 0
26 -3 6 0
-47 -30 49 0
-12 -14 -6 0
7 28 35 0
-42 -31 -30 0
39 -47 -32 0
-45 44 26 0
-13 8 2 0
-31 42 -10 0
35 13 6 0
-2 -8 11 0
-32 -31 2 0
37 26 -4 0
-28 -27 -32 0
19 -3 -32 0
-44 -32 15 0
21 -36 -5 0
-8 32 -40 0
-2 11 19 0
-33 15 -38 0
46 43 -30 0
-27 -44 -42 0
11 -40 -14 0
9 12 -13 0
32 20 16 0
17 -23 -44 0
3 -5 22 0
-15 -32 -17 0
-50 -36 -18 0
-39 -43 7 0
-30 -49 -8 0
-7 36 3 0
-14 -24 -11 0
32 47 -7 0
-8 -13 29 0
-31 22 19 0
-49 27 -24 0
34 27 -15 0
30 34 44 0
-1 46 34 0
50 -11 -28 0
42 -10 -37 0
43 -34 -19 0
20 47 -48 0
-34 40 10 0
35 40 -42 0
42 26 50 0
-22 -25 -47 0
35 -19 -14 0
49 -41 -11 0
17 16 -50 0
47 -4 24 0
49 -42 8 0
-22 -16 -48 0
-41 43 35 0
-43 -46 -37 0
-16 7 -21 0
-30 -7 10 0
4 28 9 0
-34 -26 -38 0
38 32 -41 0
-32 47 27 0
-46 -30 -9 0
45 -14 -30 0
-24 8 39 0
19 3 -34 0
20 19 -32 0
-27 4 -20 0
-32 1 8 0
-31 -37 -20 0
31 47 -39 0
49 -29 43 0
40 -43 27 0
-3 -43 -29 0
-46 -2 37 0
42 -8 -36 0
-49 -4 -37 0
-2 8 43 0
-14 -16 46 0
35 39 -21 0
2 22 -28 0
25 17 6 0
-10 12 -17 0
-44 11 4 0
4 20 -25 0
17 25 -8 0
-16 32 33 0
-4 21 30 0
41 -15 -2 0
-16 49 -36 0
-29 -6 41 0
-35 11 -16 0
-29 -3 -1 0
42 -11 1 0
-17 -44 25 0
33 -19 3 0
6 26 -45 0
-18 -28 14 0
44 -22 41 0
16 43 -21 0
-2 45 9 0
1 -44 -12 0
49 -26 -35 0
35 2 -43 0
25 -39 -23 0
1 8 30 0
48 -2 49 0
6 -40 41 0
32 -24 -3 0
-14 -1 13 0
18 -37 -33 0
-37 44 39 0
-5 -9 -17 0
-47 18 -13 0
44 -35 40 0
-28 42 -44 0
28 -27 18 0
-34 49 3 0
27 35 29 0
37 -2 -48 0
16 13 -11 0
-2 -31 -28 0
22 17 16 0
-4 -22 -34 0
40 29 49 0
4 -3 25 0
9 -4 29 0
-7 44 4 0
7 -40 -49 0
40 -1 -30 0
-40 -7 22 0
34 22 -38 0
-5 38 -13 0
