p cnf 150 639
87 115 -45 0
-117 -111 70 0
78 -135 -19 0
-123 132 -19 0
5 126 4 0
101 107 124 0
11 -137 -85 0
-99 -15 102 0
-141 94 107 0
-50 -4 -139 0
-136 -99 55 0
-67 15 76 0
102 104 26 0
73 -135 90 0
-4 -75 -132 0
-81 -123 -68 0
-125 93 -136 0
-14 44 77 0
56 -138 37 0
73 -68 -69 0
-6 88 113 0
32 -83 -34 0
-114 133 -44 0
109 59 112 0
-22 -106 51 0
23 -118 -63 0
-144 91 -102 0
-86 -115 11 0
-30 85 9 0
110 40 46 0
62 -68 50 0
45 -5 -83 0
57 -137 -109 0
116 35 131 0
-103 80 84 0
-13 -121 102 0
4 -148 99 0
-68 -59 83 0
94 -127 -19 0
93 109 -53 0
-21 5 63 0
6 59 103 0
59 -11 139 0
-88 8 54 0
-103 38 -130 0
3 -71 35 0
-26 -20 111 0
-41 -19 -17 0
-127 141 -89 0
-68 -99 97 0
-103 136 33 0
125 -54 -121 0
-127 75 -111 0
-88 5 -135 0
-8 -73 -69 0
65 -42 -143 0
123 -66 45 0
-140 -12 90 0
68 131 -60 0
109 -13 138 0
-57 -147 -59 0
-93 -97 -116 0
8 -65 47 0
-106 -86 -75 0
-150 77 -51 0
-3 94 56 0
-21 100 -127 0
114 -142 -16 0
-65 90 34 0
68 149 28 0
84 -147 45 0
-11 89 -134 0
-66 98 17 0
83 -128 -17 0
116 80 31 0
-34 106 -46 0
-9 -47 -88 0
127 139 107 0
99 108 -101 0
-8 57 -38 0
-43 71 -83 0
-124 148 130 0
26 -140 -90 0
-41 -124 -108 0
137 15 131 0
-96 108 -3 0
131 -6 71 0
126 -47 -33 0
81 139 -26 0
115 17 -129 0
114 120 31 0
-51 135 -13 0
-119 131 -101 0
147 17 -145 0
69 -10 34 0
-132 -58 -86 0
-146 119 -73 0
-16 -131 81 0
-1 -77 93 0
-127 100 120 0
-134 105 144 0
-55 -34 -79 0
52 126 53 0
78 -14 134 0
-144 147 -16 0
36 -120 -60 0
33 -24 81 0
-66 71 -136 0
-21 43 -4 0
131 -115 8 0
74 -110 -96 0
33 39 91 0
107 -40 10 0
107 108 -127 0
-113 -13 -18 0
-96 94 -124 0
-136 34 88 0
-53 118 -24 0
-143 -90 -104 0
-121 140 21 0
-130 -23 -93 0
-110 36 61 0
-129 119 18 0
103 46 28 0
-125 18 -147 0
-111 133 87 0
-114 -2 -139 0
-78 109 -53 0
118 -76 -45 0
-115 109 -36 0
-71 -121 2 0
-5 -95 -105 0
-33 -104 100 0
14 -25 60 0
131 128 -112 0
101 -34 129 0
101 134 140 0
-90 130 -48 0
-73 -115 -135 0
-37 -77 -85 0
-128 137 29 0
-126 -39 51 0
58 47 118 0
136 121 -13 0
7 86 77 0
-29 -52 -108 0
-9 -41 77 0
-27 4 -121 0
132 145 108 0
98 -3 1 0
-78 88 -128 0
59 120 55 0
148 89 52 0
-122 31 -42 0
19 75 -62 0
-16 -149 -25 0
-131 -96 61 0
-125 5 -131 0
-121 6 112 0
-127 -69 -142 0
-34 110 57 0
102 -18 -2 0
-63 29 140 0
125 -73 -7 0
-84 -27 86 0
16 -63 85 0
3 99 20 0
-26 -125 27 0
-113 39 -143 0
-68 -2 143 0
114 -94 55 0
75 83 17 0
-136 34 -134 0
-119 1 11 0
-142 141 -107 0
-126 -91 -25 0
-48 50 -14 0
-122 141 105 0
-142 65 26 0
53 42 43 0
108 -110 125 0
22 -79 -8 0
-46 -104 52 0
-112 -80 40 0
-20 89 -28 0
-81 135 22 0
-48 89 -120 0
136 28 33 0
84 36 109 0
-28 48 -63 0
-144 16 20 0
-51 -107 90 0
-20 9 114 0
13 -90 14 0
-119 -30 83 0
-32 -22 -17 0
6 78 -28 0
-16 -20 30 0
85 16 134 0
145 15 -125 0
25 -73 62 0
24 9 71 0
-138 129 31 0
-11 -145 90 0
-62 87 -17 0
-107 48 -78 0
-15 -91 -47 0
79 -122 -87 0
18 -124 141 0
-97 -70 -9 0
-136 85 130 0
116 122 -22 0
-93 121 110 0
-119 -19 15 0
-9 73 45 0
-53 -90 -60 0
-17 83 120 0
-144 99 30 0
134 82 63 0
113 77 135 0
-68 72 106 0
107 -56 -89 0
59 -137 -60 0
-78 -21 -82 0
-41 119 121 0
-137 106 31 0
53 -27 -30 0
127 -129 114 0
119 -135 149 0
15 116 121 0
-14 -2 107 0
-70 105 -99 0
-1 -107 -133 0
-94 -95 -41 0
-117 51 118 0
-3 68 30 0
31 -106 27 0
-128 146 -113 0
-85 58 -50 0
-85 32 135 0
136 96 82 0
-116 76 70 0
97 92 14 0
8 -3 -124 0
39 112 138 0
-37 28 -82 0
-13 -124 -109 0
127 -81 119 0
115 37 -95 0
120 -63 109 0
-150 -67 38 0
89 -28 -29 0
21 -127 132 0
-118 19 -16 0
-109 29 -124 0
-22 -135 -131 0
97 -6 108 0
-91 88 15 0
-51 30 -123 0
-108 -69 15 0
70 79 -54 0
86 81 22 0
-81 112 97 0
1 50 -130 0
42 -16 -3 0
101 85 75 0
-101 150 46 0
68 -147 -114 0
57 -80 137 0
25 -57 -27 0
34 -67 -94 0
-127 -28 140 0
-47 117 30 0
-109 112 92 0
73 48 -149 0
69 150 116 0
-19 41 -21 0
115 111 -78 0
-35 -32 -64 0
-22 -64 150 0
13 44 129 0
-46 5 -127 0
20 -56 94 0
-105 -106 -133 0
-74 37 127 0
76 126 49 0
147 -85 94 0
-65 -122 41 0
18 45 140 0
99 150 -74 0
49 -150 97 0
11 -3 -80 0
-83 70 121 0
-60 -23 99 0
144 -47 -70 0
-113 101 -124 0
-146 -138 -57 0
88 -147 -14 0
150 80 132 0
-30 -18 -136 0
-103 116 -12 0
55 -139 68 0
-102 -63 128 0
19 144 96 0
103 64 79 0
-130 84 -6 0
80 16 3 0
-61 84 116 0
121 -125 7 0
-50 134 -127 0
-44 -32 40 0
21 -142 126 0
-127 65 -58 0
-65 -55 43 0
55 82 97 0
38 74 -124 0
-74 123 39 0
-79 61 -41 0
56 47 35 0
128 -91 -136 0
19 -117 -57 0
-22 -132 148 0
-37 72 29 0
58 92 -127 0
-59 39 8 0
-68 -141 -10 0
60 105 114 0
-90 -88 70 0
-79 37 119 0
49 -42 -60 0
52 -125 -91 0
57 127 -139 0
20 28 -100 0
-108 -65 -89 0
114 91 -9 0
-24 93 23 0
58 -60 -94 0
96 87 -5 0
-29 15 -63 0
113 -50 -36 0
-34 9 -22 0
-139 -45 33 0
-102 -138 -101 0
106 108 -59 0
-106 73 140 0
-131 -116 81 0
-44 -146 85 0
5 -33 -135 0
-49 82 -4 0
-95 49 33 0
-129 -102 49 0
-21 -63 -4 0
-52 -44 -61 0
19 26 -143 0
29 -19 87 0
-65 106 -86 0
96 -121 144 0
4 1 73 0
-11 -4 136 0
49 -145 -21 0
-63 31 -6 0
-57 26 -42 0
-70 -42 129 0
108 32 -111 0
-126 -38 -144 0
-44 -18 33 0
25 93 26 0
-126 -132 78 0
40 -9 149 0
104 110 -62 0
80 -86 -52 0
-72 36 -35 0
62 -43 122 0
46 89 4 0
-59 33 -118 0
-70 80 -67 0
-74 149 -55 0
-102 21 -112 0
-99 58 8 0
-81 -124 96 0
31 114 -9 0
143 -140 -27 0
143 -134 -33 0
60 87 -136 0
-37 -34 59 0
107 78 20 0
37 -50 -2 0
113 -116 108 0
39 92 32 0
8 -139 -80 0
145 -52 146 0
106 -67 -100 0
39 -101 143 0
-27 -115 -109 0
30 -38 -72 0
142 84 -150 0
145 -41 -111 0
-11 47 -141 0
-77 -106 72 0
75 81 -120 0
143 44 -11 0
-131 -64 -93 0
134 -20 61 0
-12 74 -108 0
-41 -18 -127 0
-122 35 -97 0
-12 13 38 0
-49 52 -13 0
5 8 24 0
-50 47 -64 0
-87 95 3 0
32 143 -14 0
73 71 -140 0
98 -70 -111 0
9 108 83 0
-103 -82 65 0
-70 43 17 0
-143 -116 113 0
-16 7 -2 0
-15 -105 53 0
53 -132 -30 0
50 55 111 0
127 -106 -15 0
9 -115 64 0
138 -12 -62 0
-112 5 -115 0
111 -6 12 0
17 -150 -149 0
69 -18 100 0
144 113 -39 0
-87 -86 115 0
-67 -89 12 0
99 7 -60 0
-23 -98 21 0
51 64 -97 0
-137 8 -69 0
99 66 -72 0
-104 78 150 0
85 41 -130 0
28 -93 106 0
125 -65 -147 0
-8 -109 -5 0
26 36 89 0
136 -43 -38 0
113 -18 80 0
-101 -85 -9 0
-5 -47 -29 0
108 78 -114 0
8 22 104 0
106 -35 86 0
-96 -18 -109 0
-8 -45 -98 0
-71 -46 -39 0
-128 -74 -99 0
54 109 -136 0
-6 71 69 0
-141 -10 -11 0
116 36 24 0
-28 47 -11 0
-129 75 18 0
44 97 -54 0
150 -66 -109 0
41 -87 33 0
88 -42 35 0
-17 80 48 0
-80 -124 -149 0
-3 -66 -147 0
59 -21 45 0
-59 150 -88 0
43 -132 -71 0
145 -54 -138 0
52 -20 1 0
-136 116 107 0
2 -150 -43 0
-125 -16 -108 0
51 38 147 0
-97 45 131 0
-9 -119 62 0
-148 -119 94 0
-126 -39 -19 0
-5 111 108 0
-86 109 -93 0
6 -13 39 0
-18 117 35 0
-145 -85 -67 0
-110 -25 19 0
-72 -45 -30 0
-62 -14 7 0
38 -41 -149 0
120 103 27 0
138 96 -119 0
-147 -41 16 0
142 -112 -103 0
30 -87 85 0
18 59 140 0
128 59 123 0
8 -102 49 0
-31 93 -20 0
28 -45 135 0
-111 25 56 0
84 -134 7 0
-24 43 15 0
149 59 -131 0
-97 58 134 0
-71 -101 140 0
50 13 3 0
-120 -89 -123 0
-85 -17 -138 0
117 -127 -139 0
-106 -17 75 0
91 94 115 0
-12 -35 -106 0
114 80 47 0
-134 17 -46 0
-104 -89 -52 0
71 -116 -65 0
-86 142 -106 0
73 148 44 0
-44 -136 -49 0
71 -8 -36 0
-19 -35 42 0
-113 27 81 0
64 -147 -77 0
15 16 -146 0
67 -25 146 0
145 -95 25 0
-116 -8 46 0
-107 -148 -58 0
116 -119 107 0
-100 -113 54 0
31 -125 -142 0
-35 124 -8 0
65 101 75 0
94 -114 -100 0
118 -50 25 0
47 81 144 0
75 80 -58 0
96 -99 20 0
-61 -38 9 0
-133 -75 -99 0
9 -121 -35 0
12 -28 132 0
-125 -6 139 0
-41 126 -116 0
-42 127 -83 0
-53 -109 22 0
-78 -15 -102 0
-50 -100 -45 0
-149 -117 -145 0
22 -55 7 0
-104 -118 -29 0
113 135 18 0
-70 17 -111 0
94 149 -127 0
29 -36 116 0
-91 -32 -114 0
104 -40 118 0
-65 146 39 0
-134 -107 24 0
83 -77 139 0
5 105 -28 0
64 121 -4 0
129 -117 124 0
-33 -127 143 0
92 -130 -60 0
20 -126 -149 0
69 41 -31 0
-101 18 2 0
39 -123 125 0
-146 144 -55 0
120 -59 41 0
-42 112 107 0
68 35 -52 0
69 -62 73 0
104 37 -125 0
79 134 112 0
-31 59 21 0
12 40 127 0
-91 106 -2 0
-134 4 103 0
-87 -94 -1 0
-38 111 44 0
-76 -54 40 0
41 124 -144 0
47 -73 15 0
-116 -86 -67 0
-14 37 -55 0
12 -85 97 0
-79 28 96 0
-34 74 6 0
-26 81 95 0
-107 -67 -79 0
147 -47 -25 0
-80 43 71 0
51 103 -94 0
20 110 13 0
110 -85 109 0
97 35 -78 0
-25 119 140 0
11 -138 -100 0
98 27 -77 0
30 -20 -150 0
-93 123 71 0
131 -122 110 0
122 19 138 0
-14 -66 10 0
-134 60 82 0
73 48 120 0
22 -47 -17 0
-86 -59 55 0
43 109 -107 0
109 -144 -84 0
-12 1 39 0
-18 20 31 0
-40 97 -24 0
-66 -39 -119 0
-24 70 17 0
134 -138 -121 0
-131 6 -7 0
83 -40 98 0
-129 95 -76 0
-52 -125 38 0
43 -54 20 0
-59 107 109 0
-69 -140 -88 0
-115 85 -48 0
126 10 -15 0
-73 50 -38 0
139 -23 -24 0
-106 46 -64 0
112 24 50 0
2 -53 -127 0
-38 -32 -39 0
132 -99 10 0
84 -115 24 0
-36 49 148 0
-105 17 -73 0
2 -149 -87 0
8 81 16 0
