p cnf 100 426
96 58 -2 0
-26 -88 -16 0
27 -69 -36 0
17 -47 -83 0
35 -60 -29 0
-83 -81 48 0
54 74 -85 0
81 -50 38 0
94 89 -19 0
-29 60 80 0
-27 92 -19 0
-78 -55 67 0
17 -68 72 0
-78 59 -79 0
-87 67 28 0
-31 22 -13 0
-87 -54 -45 0
94 4 17 0
95 -84 68 0
-83 59 29 0
-39 73 74 0
-75 -46 93 0
68 -43 24 0
20 -14 42 0
87 -57 38 0
-77 -78 33 0
26 -72 73 0
-47 56 100 0
8 66 -63 0
12 -3 85 0
27 -49 -86 0
-45 95 -50 0
24 -22 94 0
-73 28 77 0
13 75 -16 0
-56 51 93 0
96 -20 53 0
-99 72 74 0
-46 79 47 0
-56 -8 79 0
-54 -38 -99 0
72 -14 -2 0
92 -35 54 0
-64 28 89 0
-71 -8 -96 0
17 65 74 0
12 -71 25 0
-58 -57 -12 0
31 57 36 0
-52 -66 41 0
96 42 -8 0
83 76 -87 0
-82 22 -34 0
46 33 -68 0
24 14 88 0
-58 9 1 0
40 54 -80 0
76 8 28 0
56 -95 75 0
11 24 -23 0
-31 94 74 0
-45 -71 -53 0
82 -73 6 0
67 78 -29 0
54 92 85 0
-41 96 -1 0
62 -25 -67 0
-9 -24 38 0
-70 12 -48 0
-12 -77 38 0
52 -81 93 0
-74 -13 86 0
74 -53 -69 0
64 10 62 0
-19 -77 -27 0
72 -92 -47 0
77 -55 11 0
18 -10 98 0
-18 -6 -73 0
-6 -86 7 0
87 -10 61 0
20 92 58 0
-9 -89 -24 0
93 5 84 0
48 -10 55 0
16 -71 -56 0
16 -86 -94 0
-30 -87 79 0
-24 -42 -46 0
75 -93 18 0
-37 -85 -44 0
-90 -78 -14 0
-82 -14 74 0
37 46 4 0
7 28 -55 0
-100 -14 89 0
-96 -53 -6 0
64 -14 -33 0
35 55 -73 0
-4 -52 -2 0
-65 -5 53 0
-44 51 -56 0
-70 45 74 0
36 -11 40 0
-80 -46 59 0
-56 -23 -41 0
-37 -59 -52 0
45 -25 -6 0
-64 18 68 0
38 -87 -92 0
2 -18 88 0
-50 11 -16 0
70 52 -56 0
-17 -35 -52 0
-87 53 62 0
21 -64 96 0
-9 47 -64 0
19 42 36 0
96 50 -5 0
80 40 77 0
-47 8 44 0
94 30 -43 0
-66 35 -48 0
-80 30 37 0
-92 -16 -1 0
-75 35 34 0
-36 90 83 0
69 -63 -66 0
26 -88 -82 0
-70 20 89 0
15 55 68 0
-73 -88 -96 0
6 -88 73 0
-53 -45 -60 0
28 87 -43 0
100 -45 17 0
67 -69 19 0
81 -20 41 0
42 26 -15 0
-72 97 -24 0
33 -44 47 0
-61 21 1 0
-49 -91 -6 0
-39 -42 91 0
-86 17 8 0
-28 -92 50 0
100 97 -91 0
-5 -62 38 0
-34 29 -1 0
11 -36 -37 0
-49 40 -46 0
-28 -9 77 0
16 -88 -47 0
-75 -58 22 0
12 4 -97 0
-29 38 -39 0
-70 -90 -46 0
94 -68 -65 0
7 -91 17 0
78 -33 28 0
-17 63 -37 0
28 16 -21 0
-34 72 6 0
-27 -88 -16 0
-68 28 51 0
64 33 1 0
98 -46 52 0
-92 -18 21 0
-24 88 -83 0
-28 -65 54 0
34 98 -57 0
-77 -27 -26 0
-47 83 76 0
98 -5 52 0
-35 70 46 0
-84 -34 -27 0
75 -72 12 0
56 45 13 0
50 -96 31 0
-91 -3 40 0
-49 33 -81 0
94 44 -75 0
71 -81 91 0
-80 32 64 0
-98 53 -25 0
23 -63 52 0
47 -73 27 0
100 -40 12 0
-45 -29 -100 0
84 -70 -39 0
-25 -26 78 0
-52 15 47 0
29 -79 14 0
37 -24 96 0
21 -98 10 0
-1 93 -68 0
-100 33 -59 0
-85 78 -74 0
-29 68 -85 0
-74 49 60 0
5 75 87 0
25 59 24 0
-47 66 50 0
-35 47 -80 0
83 47 -88 0
63 -60 1 0
-80 13 -60 0
-94 -53 -1 0
-53 -66 -71 0
54 -97 9 0
-78 -61 -26 0
-62 -76 -38 0
-53 36 35 0
-20 -63 -51 0
98 -45 77 0
-43 67 -57 0
-75 -82 34 0
81 95 31 0
-41 83 5 0
47 -31 57 0
-93 -35 87 0
30 -83 80 0
-45 36 -71 0
68 1 -48 0
48 -52 75 0
53 -77 49 0
36 100 4 0
36 -12 46 0
91 33 -4 0
-19 -53 47 0
75 56 27 0
36 -83 -55 0
51 56 -96 0
-18 -63 26 0
15 43 -77 0
74 37 9 0
63 -56 -6 0
77 -42 15 0
-60 61 73 0
31 3 -55 0
58 -84 -48 0
-27 -44 -3 0
99 83 -88 0
-4 93 52 0
61 -8 -62 0
-88 16 -21 0
13 28 73 0
-47 -77 -83 0
-14 -90 95 0
53 -65 -58 0
2 63 -75 0
52 83 47 0
-6 -64 -5 0
88 -83 -39 0
26 -2 30 0
-28 -56 43 0
38 34 80 0
-2 -25 -16 0
-32 85 -50 0
-11 55 -64 0
-35 -34 -6 0
96 -76 -28 0
-5 60 -81 0
-44 -20 55 0
-47 -21 -27 0
-78 77 85 0
77 -22 32 0
1 -32 4 0
-46 -36 8 0
21 -4 -16 0
-28 12 72 0
-17 -26 -11 0
-98 89 -50 0
-39 68 16 0
-8 -45 39 0
-67 46 57 0
-27 76 -68 0
43 -82 88 0
11 -69 21 0
-66 -18 -56 0
13 65 -44 0
-88 -54 -100 0
44 -76 6 0
55 94 -80 0
-59 50 -14 0
-98 -38 66 0
92 -42 -95 0
37 53 92 0
-57 53 77 0
90 100 -27 0
-8 -65 97 0
100 -43 -39 0
-64 35 48 0
91 16 -17 0
95 76 32 0
64 8 91 0
-37 -71 40 0
34 93 -14 0
-44 54 85 0
-76 -29 -44 0
-56 -58 34 0
-16 20 -100 0
-51 -47 -26 0
15 89 -81 0
82 -7 8 0
31 -38 -46 0
-47 56 -24 0
85 -28 -27 0
90 98 -54 0
79 -46 -98 0
12 -4 65 0
11 61 12 0
42 -99 21 0
-30 -29 -51 0
-79 -88 32 0
-68 -74 -67 0
4 -12 -5 0
77 -11 12 0
21 -52 37 0
-87 -94 31 0
64 76 -6 0
-31 -70 -72 0
-9 -72 69 0
-58 67 13 0
-52 -32 -96 0
95 -2 70 0
-38 24 96 0
20 -94 53 0
-83 -72 -25 0
77 -56 -53 0
-67 12 -88 0
-39 35 -79 0
-85 12 -40 0
-28 73 -79 0
43 56 -52 0
2 -20 -81 0
72 -73 49 0
54 -86 -67 0
-69 -24 18 0
-99 -84 81 0
72 63 18 0
-30 63 -91 0
87 92 -9 0
91 67 -42 0
43 -42 -75 0
-87 -100 -58 0
48 -59 65 0
-46 44 9 0
96 -62 -84 0
-34 28 54 0
-53 14 -33 0
33 23 -6 0
66 -56 -57 0
18 -7 32 0
-68 45 86 0
48 81 -13 0
41 7 70 0
-24 -91 -73 0
53 91 -27 0
92 7 -100 0
-1 -52 -6 0
10 95 63 0
11 -68 -35 0
38 -75 99 0
-17 61 -3 0
13 -15 -38 0
-25 6 40 0
94 95 93 0
2 -77 97 0
52 71 -76 0
-59 15 -37 0
6 37 32 0
12 23 -53 0
23 -29 -26 0
44 66 3 0
43 -44 -20 0
-87 31 52 0
59 93 -41 0
-96 88 -56 0
-41 -60 10 0
67 -12 50 0
-24 31 -47 0
98 -90 30 0
-37 -94 -75 0
-54 -43 -61 0
-25 19 14 0
23 -51 -88 0
-81 -88 43 0
-5 -39 9 0
-91 -40 70 0
78 -29 -25 0
-29 54 26 0
99 48 -90 0
-1 74 -70 0
-34 30 -58 0
-13 -60 2 0
-15 -24 44 0
-88 -29 -28 0
-61 -12 58 0
68 14 59 0
-78 13 -64 0
-73 31 4 0
-45 -93 -47 0
78 -99 71 0
76 28 -49 0
92 33 -93 0
-81 -38 46 0
26 48 -60 0
-49 48 -1 0
61 69 -83 0
-24 -58 15 0
-98 -17 -81 0
9 -16 72 0
-16 -4 78 0
1 76 -84 0
72 9 84 0
18 64 89 0
86 -89 -68 0
-7 11 -36 0
65 17 -13 0
-99 95 77 0
-63 -58 26 0
90 -73 88 0
-5 46 16 0
-94 -73 -95 0
86 79 23 0
