p cnf 200 852
-123 9 49 0
-119 -4 -62 0
141 133 -72 0
159 -68 3 0
-139 -178 12 0
-161 -100 -53 0
37 -70 -176 0
86 -94 -106 0
-33 -59 -87 0
-34 -119 72 0
153 -175 -48 0
68 72 97 0
-15 -108 181 0
-175 1 109 0
190 17 -176 0
117 -164 14 0
17 28 7 0
196 -38 -199 0
-131 -102 -145 0
-5 -16 -199 0
-73 -135 77 0
-85 68 -19 0
45 -37 154 0
-159 22 -64 0
-122 -183 -41 0
177 20 -143 0
55 169 -149 0
-106 -182 -95 0
58 -116 -143 0
86 151 -186 0
-21 198 134 0
-184 133 -30 0
-51 -56 123 0
114 -40 -182 0
-43 99 192 0
169 188 158 0
-101 -35 12 0
-173 -138 40 0
-162 151 -83 0
72 -23 165 0
-154 188 -28 0
74 170 -175 0
-134 38 -88 0
-189 200 176 0
139 -38 -89 0
-173 -155 197 0
-16 50 -65 0
-193 -159 -200 0
-140 49 73 0
35 114 -16 0
-167 20 71 0
60 -102 -157 0
61 200 34 0
-118 -168 151 0
-177 192 21 0
94 -42 74 0
-7 -25 41 0
-10 -145 173 0
-199 9 -165 0
90 -44 -30 0
159 -126 32 0
-47 -89 168 0
-105 -62 109 0
-172 -99 163 0
83 -97 148 0
41 -133 -90 0
-169 -185 -125 0
-18 -136 121 0
178 52 182 0
-31 60 63 0
126 -191 14 0
-123 -136 -53 0
6 -72 149 0
11 188 -54 0
104 19 -132 0
-103 113 -14 0
153 -54 195 0
109 -184 167 0
190 40 101 0
-107 56 -89 0
129 170 87 0
-20 -63 196 0
-139 -167 47 0
38 101 -59 0
99 -196 -26 0
12 -73 -195 0
3 102 -56 0
189 -197 91 0
-2 -172 68 0
169 -112 153 0
-58 143 38 0
12 -160 -28 0
36 30 176 0
131 155 -72 0
165 -57 -172 0
-155 -3 161 0
-110 -10 57 0
-199 196 -38 0
43 47 62 0
-128 35 120 0
-164 -82 -8 0
162 138 114 0
198 -113 -128 0
120 140 130 0
161 66 129 0
11 101 181 0
-131 145 139 0
-198 151 195 0
-164 -5 -111 0
127 -92 -3 0
77 -166 -15 0
23 -91 53 0
-193 93 178 0
-177 -139 -83 0
85 -102 18 0
189 -114 -134 0
116 -100 -8 0
48 -200 -92 0
180 -99 153 0
-94 39 -67 0
49 194 -176 0
84 -147 -149 0
-182 2 -18 0
-81 187 -144 0
-187 75 -61 0
93 128 -183 0
-81 152 91 0
104 -195 -150 0
-189 186 162 0
-40 138 98 0
11 -181 118 0
47 -188 164 0
-196 78 74 0
-37 -39 72 0
-87 -158 -84 0
-84 114 54 0
44 164 103 0
-170 101 -41 0
-157 -29 -69 0
-198 -82 -56 0
-82 105 155 0
4 -121 -16 0
129 154 -53 0
-13 25 -89 0
-52 -120 73 0
-137 -78 -71 0
92 -39 148 0
-146 6 -16 0
133 -117 131 0
29 -55 6 0
-60 -116 195 0
11 -94 164 0
1 -25 -107 0
118 140 -188 0
9 160 -185 0
-98 91 130 0
-179 191 18 0
-138 -27 145 0
-43 6 101 0
-82 8 21 0
-131 183 -114 0
120 -164 180 0
36 83 12 0
-157 -20 -120 0
10 -154 -46 0
105 5 180 0
186 193 -162 0
-127 158 98 0
-143 64 -19 0
152 -129 -41 0
-154 138 -115 0
175 75 176 0
106 22 56 0
-139 -172 73 0
-82 183 -12 0
117 163 -75 0
-30 145 26 0
152 72 -139 0
-81 -34 -189 0
163 102 -16 0
-153 -49 -163 0
-6 -38 13 0
37 -4 -83 0
87 42 143 0
-82 -115 39 0
97 22 9 0
-106 -45 2 0
33 96 -82 0
162 151 159 0
-171 105 75 0
122 6 56 0
92 85 -35 0
-29 -103 146 0
-125 91 -146 0
187 -4 65 0
-83 -78 -185 0
156 -38 -77 0
-110 -104 -19 0
114 -15 -4 0
156 4 -107 0
49 -30 96 0
-82 48 30 0
-41 161 -66 0
-8 116 -112 0
-132 -148 -25 0
160 -138 -150 0
-175 171 -31 0
-129 6 128 0
-1 -200 -50 0
106 4 -3 0
-46 63 34 0
-164 9 68 0
-147 84 -57 0
19 177 -131 0
63 184 85 0
-54 56 60 0
-98 190 10 0
-188 195 14 0
173 -196 184 0
-45 61 129 0
-60 -7 -25 0
49 9 -172 0
195 -71 41 0
-188 91 76 0
-194 170 -103 0
48 -156 -149 0
42 -130 -161 0
145 22 -120 0
-177 135 -48 0
30 117 152 0
-163 144 113 0
-183 -116 -126 0
67 80 28 0
-55 -124 -86 0
76 -137 -20 0
-30 -130 -4 0
94 91 129 0
49 84 43 0
-179 -185 78 0
28 -11 68 0
80 15 187 0
55 18 -163 0
46 -109 82 0
48 -147 150 0
9 168 -154 0
-156 -22 174 0
185 111 26 0
-179 -22 -23 0
178 76 47 0
-56 23 179 0
126 -7 -52 0
31 -187 138 0
-59 103 -38 0
-134 187 28 0
142 197 81 0
-131 65 168 0
152 -40 -104 0
-91 176 -139 0
116 -180 183 0
-165 14 58 0
36 132 21 0
9 -77 -6 0
169 -121 59 0
31 186 176 0
-62 145 124 0
174 -59 -32 0
17 -14 -116 0
-127 -112 126 0
104 -99 -14 0
-175 -192 -196 0
80 69 -171 0
-188 158 -192 0
-57 -129 109 0
28 45 -107 0
-108 114 61 0
70 -24 178 0
47 -23 -21 0
142 -106 133 0
-77 84 -135 0
126 125 -17 0
130 -192 142 0
46 -78 -47 0
134 164 122 0
22 -54 -101 0
84 137 104 0
-66 -3 -182 0
120 67 -40 0
120 -30 -44 0
-121 96 -117 0
9 -7 -108 0
-58 -112 -142 0
171 -121 -200 0
44 -184 50 0
82 133 162 0
-143 55 171 0
74 -150 -19 0
32 82 -84 0
110 -193 179 0
-83 196 30 0
36 83 -143 0
149 -54 52 0
-115 111 -141 0
-70 152 -158 0
70 190 -116 0
116 -40 131 0
118 -191 -19 0
-176 73 97 0
139 26 -122 0
-135 87 -116 0
42 30 100 0
-24 -29 -189 0
168 -155 -84 0
-35 22 188 0
-178 -94 148 0
-64 -144 -28 0
172 -138 -65 0
12 -26 -120 0
-14 -177 85 0
-176 32 -154 0
-189 -157 -134 0
-17 -67 164 0
111 -48 146 0
80 -184 -88 0
43 -102 -122 0
-71 3 76 0
169 64 -189 0
-108 -13 -4 0
-16 163 121 0
-98 -70 67 0
87 -148 -60 0
146 82 79 0
4 171 157 0
18 -182 -187 0
158 -87 -145 0
68 -33 56 0
40 -140 177 0
121 6 -62 0
107 132 -96 0
98 -165 156 0
156 60 -61 0
-23 97 56 0
-31 118 39 0
-84 -124 -79 0
-46 -79 -111 0
-155 132 28 0
-70 45 -9 0
-183 -64 157 0
-181 125 -141 0
-55 87 -197 0
-117 47 53 0
19 -29 62 0
-116 -152 108 0
48 16 36 0
174 -42 -144 0
83 -195 179 0
163 -105 -126 0
74 -2 -77 0
18 30 -150 0
-58 108 -13 0
60 -68 -11 0
52 10 -12 0
-53 48 116 0
57 32 105 0
-149 -107 -189 0
-199 86 79 0
34 167 -184 0
40 171 26 0
-163 -44 -78 0
-127 -79 -102 0
146 34 -127 0
59 120 -14 0
149 -116 -154 0
-5 -144 127 0
-132 -108 -121 0
56 112 -153 0
153 151 170 0
14 53 -82 0
-25 -31 67 0
-137 151 186 0
-111 -51 -176 0
-56 -83 -178 0
-156 51 -125 0
26 -119 -102 0
180 27 -2 0
-19 -106 71 0
-158 -179 120 0
29 -136 143 0
129 -151 21 0
156 148 -29 0
-65 -74 17 0
-107 -200 108 0
5 155 -157 0
-85 99 135 0
57 20 87 0
25 67 -150 0
166 40 -200 0
-103 63 -71 0
-198 -110 43 0
153 196 191 0
-43 -114 -173 0
51 2 140 0
3 -60 102 0
-177 -43 -171 0
3 -111 -182 0
172 -98 117 0
-124 191 128 0
148 29 -34 0
112 -75 67 0
-19 189 -95 0
66 4 -61 0
130 58 80 0
99 -109 -52 0
-12 -97 -110 0
74 -198 -157 0
-78 80 105 0
125 170 148 0
36 -135 -129 0
169 33 138 0
-11 -122 -80 0
-174 132 -37 0
149 -176 71 0
-1 -85 -111 0
122 -153 13 0
66 156 -97 0
30 -104 -150 0
44 178 -129 0
-149 -60 -76 0
49 -93 -122 0
186 -22 81 0
-93 -177 118 0
-82 136 -31 0
79 118 93 0
-61 -123 -174 0
10 181 -15 0
-44 -133 127 0
-134 -199 148 0
-186 -195 -61 0
-96 171 15 0
93 -116 59 0
-180 35 -103 0
-74 -37 -101 0
200 -53 -43 0
162 21 -35 0
-168 159 166 0
-181 133 -70 0
37 113 131 0
-184 -54 -170 0
123 179 114 0
-166 -151 186 0
192 114 11 0
-68 3 50 0
189 123 -69 0
-195 193 93 0
-173 196 96 0
-25 -131 -103 0
36 23 148 0
195 -63 -131 0
-141 -90 78 0
-16 50 37 0
152 -155 186 0
-197 -181 193 0
-163 107 182 0
-156 -45 -37 0
-159 107 -119 0
-23 11 100 0
194 -22 181 0
42 55 171 0
-51 177 127 0
111 -180 86 0
-181 80 26 0
131 -43 -65 0
-43 59 -159 0
-138 -68 -56 0
13 153 151 0
49 -149 21 0
8 -190 -118 0
-136 -20 106 0
-88 148 -181 0
-199 -94 165 0
-183 -158 44 0
-39 167 -71 0
-82 -44 184 0
-187 -107 68 0
-161 -81 -115 0
174 -48 69 0
-69 -155 44 0
-197 -136 -159 0
27 -48 -182 0
14 9 -82 0
-44 190 -74 0
-46 -139 24 0
94 -22 -41 0
-153 17 124 0
156 118 -48 0
143 -101 -110 0
59 19 -106 0
-71 16 -76 0
80 -25 -123 0
30 -52 128 0
97 -77 6 0
-39 -12 -170 0
-185 77 127 0
152 -176 69 0
-39 34 100 0
83 65 -51 0
166 -89 193 0
38 17 194 0
-159 57 -45 0
134 -76 163 0
51 136 63 0
63 -194 -38 0
71 79 7 0
35 39 123 0
47 -32 145 0
84 129 193 0
-161 -132 96 0
149 130 109 0
-175 8 -83 0
-158 -116 101 0
97 52 -81 0
28 -141 -138 0
118 -93 -62 0
-164 -12 -146 0
-168 -63 -50 0
-190 64 51 0
-148 -193 135 0
188 133 159 0
-192 23 -170 0
-101 -97 -65 0
-105 124 -141 0
102 192 129 0
197 -14 190 0
-15 -102 -58 0
-4 179 168 0
105 182 87 0
-72 -46 57 0
-79 81 -6 0
-143 -44 40 0
-183 -9 -22 0
148 7 89 0
44 172 139 0
-177 -185 9 0
188 102 180 0
126 -37 103 0
107 96 -142 0
-177 -185 81 0
128 35 -39 0
99 6 -36 0
122 118 127 0
34 149 120 0
93 -170 -200 0
-27 -175 -176 0
114 24 103 0
-35 -156 59 0
-148 -167 21 0
-169 190 -165 0
-64 161 -117 0
-56 20 -200 0
37 6 -121 0
65 -122 171 0
-163 -14 114 0
55 -71 -22 0
77 -105 178 0
97 147 -103 0
102 195 69 0
182 5 -58 0
189 105 1 0
-123 -131 115 0
123 187 191 0
126 103 -133 0
-89 -55 -194 0
16 159 -81 0
65 187 25 0
-72 135 -145 0
-87 27 -169 0
66 -73 -53 0
185 195 -28 0
-9 185 -115 0
-176 68 195 0
179 118 163 0
71 194 170 0
-32 -63 52 0
-135 -15 -31 0
-126 181 91 0
45 -186 -107 0
109 162 -188 0
-99 -19 134 0
194 -8 -99 0
-117 -129 -34 0
193 144 -37 0
90 82 -39 0
74 135 16 0
89 -120 -199 0
155 87 183 0
-4 -195 169 0
94 -176 10 0
-129 52 168 0
93 -75 -119 0
-186 189 142 0
182 187 -118 0
-60 -181 -166 0
125 -55 117 0
-153 123 101 0
-36 108 78 0
173 48 -93 0
131 85 -6 0
4 157 24 0
63 -150 -175 0
155 150 -8 0
144 194 143 0
10 -109 -174 0
17 -137 119 0
49 67 -81 0
-196 -162 129 0
-65 103 -172 0
-54 -158 162 0
39 -84 -126 0
3 80 165 0
42 51 -62 0
-18 152 -56 0
132 199 42 0
88 -108 26 0
-26 73 -126 0
143 140 -39 0
-19 137 -165 0
181 -100 154 0
101 -52 73 0
165 -135 15 0
15 -140 189 0
-11 102 93 0
-104 186 78 0
-117 29 -65 0
82 -79 63 0
114 26 -130 0
-152 -162 -126 0
-157 -27 16 0
-115 -139 -96 0
-83 -157 161 0
151 -173 174 0
-151 110 -15 0
-61 -67 126 0
-71 109 -22 0
14 18 137 0
-9 -188 194 0
-199 104 -18 0
66 6 176 0
169 119 -6 0
124 77 173 0
-170 89 12 0
-24 -145 -141 0
-140 190 56 0
-20 -101 130 0
17 152 151 0
118 -20 -65 0
-74 46 -138 0
114 52 178 0
-120 99 -1 0
175 34 -107 0
132 -169 94 0
-152 52 77 0
80 -164 88 0
122 80 185 0
150 -129 -25 0
-199 -194 145 0
-173 -114 171 0
-114 156 -38 0
-159 98 172 0
-194 163 48 0
-175 84 191 0
-75 55 -72 0
-41 -25 178 0
-135 192 44 0
-120 -12 166 0
64 54 -46 0
168 -76 50 0
56 190 157 0
-167 165 -29 0
-141 -150 143 0
-189 -14 191 0
-119 -42 63 0
-63 96 26 0
-96 17 -82 0
-93 -109 123 0
-74 172 2 0
71 -95 -82 0
10 31 134 0
59 3 -2 0
-25 -45 166 0
-39 176 -59 0
-29 94 -113 0
-34 -52 120 0
-145 -181 8 0
-90 41 51 0
-54 178 81 0
-43 -146 -2 0
-181 42 -69 0
-91 -176 130 0
-43 22 193 0
-139 -1 -180 0
-100 -105 96 0
102 25 -182 0
26 -78 -173 0
142 -101 -3 0
124 -190 -79 0
-65 154 172 0
-159 -68 170 0
59 146 31 0
74 -22 178 0
192 -19 90 0
-107 63 -194 0
-182 -111 114 0
71 -78 -81 0
-89 -166 -149 0
-17 143 161 0
77 194 185 0
138 168 -91 0
-67 132 167 0
160 -136 95 0
171 -106 -2 0
-189 -50 -38 0
197 70 -103 0
136 38 -96 0
114 -164 101 0
183 -106 -138 0
-30 -6 -34 0
-9 45 137 0
166 -186 -5 0
64 17 -157 0
-143 -41 82 0
132 -164 97 0
75 134 100 0
-60 122 -131 0
162 -100 151 0
-114 63 -45 0
-127 194 -119 0
-66 192 -1 0
-135 -107 23 0
105 2 97 0
-181 159 -154 0
-79 -27 188 0
-187 104 -130 0
-126 131 -175 0
102 113 -177 0
-92 74 32 0
44 -104 -146 0
145 -36 93 0
87 17 -68 0
59 17 -69 0
89 -59 -41 0
-28 166 93 0
-131 185 -98 0
-60 172 129 0
27 -127 -73 0
169 110 160 0
-172 -122 -26 0
-188 -33 -77 0
180 -90 133 0
200 145 -59 0
-149 94 -11 0
139 -92 162 0
-50 -3 -128 0
79 -62 -194 0
22 -83 -185 0
-155 -50 75 0
101 -155 189 0
-122 5 -114 0
-49 14 196 0
39 -100 -162 0
-136 43 183 0
108 70 -165 0
128 77 44 0
-10 3 -17 0
177 103 -48 0
-3 -99 -138 0
156 11 150 0
-105 189 164 0
103 -80 -87 0
-181 -123 -152 0
154 37 33 0
165 -84 -34 0
-175 64 88 0
-32 -165 -131 0
-121 11 -32 0
-79 -80 22 0
30 -74 180 0
-168 -133 179 0
-21 -110 164 0
-187 26 -127 0
-173 -163 -103 0
-67 172 30 0
23 163 76 0
173 5 25 0
86 150 -24 0
180 -20 -59 0
157 87 85 0
-110 -23 -170 0
147 77 -44 0
93 61 116 0
-182 -100 -92 0
-167 169 -72 0
188 -150 -149 0
-133 -36 -30 0
-149 198 -165 0
-130 61 156 0
-169 -87 30 0
144 162 -152 0
-21 9 -46 0
107 74 -152 0
166 -125 4 0
-49 137 -140 0
70 8 -145 0
-178 145 -83 0
55 -135 -37 0
-113 -91 149 0
-12 120 -148 0
32 178 -60 0
149 -160 57 0
173 56 68 0
64 168 -97 0
-74 166 -151 0
-96 125 -93 0
105 140 135 0
81 25 -32 0
-135 -190 113 0
10 -7 195 0
169 35 -122 0
136 -101 -57 0
-141 -127 -200 0
-109 194 10 0
-130 78 185 0
140 -48 -130 0
-120 189 43 0
-146 30 -54 0
30 -125 173 0
112 -156 -98 0
197 70 200 0
63 -23 116 0
-105 -45 72 0
42 -117 -73 0
-99 -147 -55 0
-126 191 -68 0
-75 36 14 0
15 -150 2 0
180 -73 90 0
-60 -96 -4 0
200 -146 -45 0
166 42 110 0
-66 -23 -134 0
46 176 130 0
-56 110 -193 0
-44 -54 -40 0
-114 -184 72 0
