p cnf 150 639
-27 -98 -127 0
143 75 -84 0
70 -110 90 0
146 68 11 0
-89 149 -55 0
-13 -119 -94 0
-122 -43 36 0
-83 13 33 0
-31 41 48 0
-74 -146 94 0
4 116 148 0
110 -121 113 0
-125 -134 49 0
-21 105 52 0
-124 -77 -4 0
10 118 -54 0
29 128 100 0
74 -92 78 0
21 -93 98 0
134 -72 144 0
46 33 138 0
-35 60 92 0
77 -131 -104 0
12 -90 138 0
-68 59 87 0
50 -21 113 0
9 139 -68 0
65 115 102 0
136 138 -125 0
-50 -122 -123 0
-110 -108 132 0
-27 -148 -141 0
74 78 122 0
116 131 -83 0
119 -6 -102 0
-87 142 -130 0
-107 -73 -60 0
-79 22 19 0
-122 -117 14 0
99 -42 -100 0
-21 139 -15 0
-39 7 12 0
-27 -109 72 0
-103 -80 145 0
86 -85 -138 0
58 59 23 0
-74 -131 -84 0
45 3 101 0
-115 23 -9 0
22 -1 -11 0
103 105 -24 0
-104 -66 -79 0
-18 -101 -37 0
-89 -1 38 0
-42 91 -16 0
-147 30 93 0
150 -41 -124 0
101 30 -97 0
49 -55 136 0
122 -12 -30 0
-79 102 -6 0
97 -68 148 0
-141 -52 25 0
-82 58 70 0
-126 -74 -19 0
57 116 90 0
-105 -99 -136 0
-49 117 -50 0
9 -41 -135 0
106 56 -93 0
5 -18 -37 0
21 68 -90 0
-148 94 -61 0
-94 70 -146 0
-75 -66 93 0
81 38 -19 0
130 140 122 0
-110 6 -74 0
26 -2 -9 0
91 37 21 0
111 -81 77 0
-111 133 -99 0
-83 69 73 0
-98 128 55 0
106 147 9 0
-133 127 -37 0
-49 -144 148 0
119 94 36 0
-79 -134 51 0
-34 119 64 0
41 118 -79 0
102 42 -33 0
78 -136 -54 0
36 -60 1 0
-109 -124 94 0
-15 84 76 0
-43 16 55 0
-31 6 71 0
12 -150 -139 0
-62 -66 -11 0
-15 136 124 0
135 -101 96 0
90 -48 119 0
94 112 76 0
127 88 -6 0
34 105 -113 0
45 -24 -109 0
-45 -49 -131 0
116 20 -74 0
-57 82 117 0
46 65 13 0
-55 -97 -38 0
87 90 -53 0
124 -120 -111 0
112 82 -138 0
-111 -92 77 0
-18 89 142 0
-63 -126 -131 0
-69 -80 -33 0
105 -137 120 0
7 -82 102 0
91 -94 -25 0
-140 -32 -144 0
98 -27 23 0
125 19 129 0
-3 -21 -48 0
-92 104 44 0
-13 96 -18 0
124 107 -3 0
-104 -142 -33 0
-77 115 22 0
-64 45 -128 0
122 64 -33 0
36 31 -47 0
-77 -131 145 0
65 -53 21 0
15 -72 -102 0
-135 -99 -117 0
127 -137 54 0
76 93 -49 0
-39 92 -75 0
149 128 50 0
-6 88 -72 0
-66 -124 29 0
34 -70 50 0
-76 86 -60 0
-120 35 -6 0
65 -89 133 0
-34 -42 -114 0
-34 25 142 0
125 -33 -86 0
73 -66 -70 0
10 -104 113 0
2 143 50 0
52 -126 27 0
-85 114 89 0
-62 -87 54 0
-80 -134 -108 0
-50 -43 -42 0
57 -87 7 0
-115 67 102 0
66 126 29 0
-136 127 126 0
22 42 -12 0
-55 -72 35 0
-140 123 -54 0
-54 92 9 0
106 62 -140 0
-49 -105 -87 0
-19 -148 -123 0
30 57 80 0
42 100 128 0
80 -40 -139 0
-101 28 102 0
-77 -48 132 0
-67 29 -98 0
-117 2 -92 0
-19 67 -9 0
127 102 -91 0
124 -71 5 0
52 132 64 0
145 -56 57 0
-85 28 -86 0
55 14 -77 0
-115 105 94 0
145 -141 56 0
-80 -98 -125 0
53 131 -39 0
-74 -58 -122 0
-41 13 -133 0
101 132 -108 0
-115 -135 112 0
-1 -118 17 0
-65 30 -141 0
-22 -130 120 0
147 -143 119 0
70 -20 -148 0
-150 -77 137 0
32 124 74 0
114 80 8 0
-43 -135 -85 0
-56 118 8 0
-116 -71 -58 0
-10 -8 80 0
-103 -10 -31 0
-92 -67 -146 0
46 103 -59 0
3 -142 112 0
-34 149 92 0
-55 -83 72 0
39 136 -41 0
-72 137 -129 0
21 -138 -108 0
73 20 -45 0
-9 90 53 0
119 37 -58 0
54 -98 -23 0
-137 122 -15 0
111 -42 -130 0
-129 127 12 0
106 -31 -69 0
-132 91 -104 0
-129 87 -142 0
113 135 -86 0
87 -56 -54 0
147 -145 54 0
-139 -102 -29 0
-74 -34 49 0
135 3 -56 0
83 138 140 0
30 38 11 0
97 -82 -112 0
-54 -101 -50 0
-54 37 36 0
73 47 -25 0
-147 141 -48 0
-145 -56 128 0
-60 -52 -86 0
-56 127 121 0
-46 34 40 0
-4 -74 -83 0
-142 -83 -13 0
-21 58 -40 0
-149 -109 80 0
111 -144 -58 0
56 64 144 0
117 -51 104 0
-128 -106 -20 0
-108 -23 -82 0
-3 102 -74 0
-149 48 -43 0
-130 -149 -88 0
-38 11 -17 0
133 20 -2 0
-37 128 77 0
9 24 -80 0
53 79 69 0
36 69 77 0
68 122 128 0
-49 21 -15 0
-24 -3 75 0
-148 -45 62 0
40 78 -37 0
-53 -28 15 0
-144 -76 73 0
-120 111 139 0
-110 -137 113 0
-6 78 -44 0
-140 -23 -15 0
-17 -13 8 0
46 55 13 0
-143 42 84 0
-130 132 -7 0
7 94 -71 0
-130 77 -86 0
-4 -67 33 0
-6 -135 113 0
33 -99 -58 0
66 -76 30 0
14 45 19 0
-8 37 62 0
85 7 112 0
-95 -122 -14 0
-136 52 43 0
25 98 26 0
-78 -150 -29 0
-39 79 89 0
108 76 60 0
-5 -56 -12 0
141 -21 -129 0
-61 88 -1 0
-93 -138 -9 0
-17 146 65 0
-55 -18 -46 0
136 -98 91 0
16 -41 36 0
-140 -77 -127 0
40 -116 -95 0
72 102 84 0
26 66 112 0
-68 -11 117 0
-5 -2 -116 0
-108 -16 -26 0
-57 29 -113 0
145 111 52 0
62 119 83 0
-140 -97 26 0
6 -13 9 0
-86 139 -22 0
48 -38 144 0
-136 126 -96 0
67 -35 -59 0
10 41 112 0
36 137 131 0
72 -74 126 0
107 51 39 0
-94 -120 -2 0
49 60 3 0
-29 -93 146 0
100 133 -121 0
-53 29 -68 0
-59 -6 -13 0
57 24 18 0
-96 147 120 0
-107 -56 -65 0
60 -16 -86 0
123 -87 -91 0
-142 -38 -136 0
-21 -60 118 0
132 -138 -8 0
125 32 79 0
-137 -79 112 0
140 -114 46 0
-135 58 40 0
67 -62 36 0
-98 -91 88 0
144 -13 43 0
-130 -26 -91 0
84 -24 -65 0
-122 -58 -125 0
-12 147 67 0
17 52 37 0
19 73 105 0
49 -64 121 0
89 -101 -49 0
-30 -91 -119 0
-15 116 -65 0
49 -110 107 0
-27 -67 -28 0
47 115 72 0
-90 149 39 0
-49 -59 122 0
52 96 60 0
63 -14 -128 0
-85 136 -53 0
139 101 56 0
92 82 128 0
52 102 101 0
103 5 -134 0
-130 -117 -72 0
-150 -53 -69 0
-101 -72 122 0
57 87 100 0
-39 107 35 0
-135 -138 41 0
-54 111 17 0
-48 -37 -31 0
-115 90 71 0
46 -7 -72 0
-114 -100 117 0
103 39 -70 0
103 57 -10 0
-45 -54 -56 0
20 122 -129 0
108 -57 48 0
27 -99 -37 0
123 -113 -57 0
91 -119 55 0
-88 1 -10 0
117 -42 -150 0
-26 -100 -106 0
-11 -140 -114 0
-139 -99 -60 0
126 116 110 0
96 33 -122 0
116 93 -95 0
30 -51 131 0
-17 -118 -82 0
-2 121 -4 0
-149 129 -138 0
96 107 -18 0
-142 -1 34 0
-46 78 -76 0
106 -84 -24 0
-102 105 47 0
-14 -77 56 0
-147 -45 -51 0
7 148 -31 0
-117 104 66 0
76 43 -114 0
68 -15 117 0
-120 40 13 0
-100 84 -37 0
-65 -121 29 0
110 105 -139 0
-12 -8 21 0
99 12 -14 0
-64 111 79 0
64 88 82 0
-43 67 -87 0
28 38 -6 0
7 -148 -65 0
104 86 67 0
114 -100 82 0
-78 -83 7 0
38 -131 124 0
-50 -26 74 0
-77 -61 -46 0
148 -75 -116 0
-6 -107 -148 0
33 58 -121 0
127 25 27 0
-14 99 137 0
7 -49 -26 0
124 -10 -87 0
-86 -20 130 0
65 -47 148 0
119 -127 -52 0
-65 -24 66 0
107 80 78 0
-35 53 -37 0
-142 100 -94 0
-49 -58 -67 0
77 43 -24 0
-102 120 81 0
82 -22 65 0
49 23 -46 0
118 147 -40 0
103 30 -119 0
-53 -10 -11 0
70 32 115 0
145 126 -85 0
-99 -50 -2 0
-82 -15 142 0
-130 52 -12 0
53 119 -8 0
-56 132 -105 0
50 9 -106 0
-86 -32 -36 0
38 138 -86 0
-62 31 -98 0
122 -132 109 0
-113 -108 -93 0
-35 -136 -15 0
-90 82 -41 0
85 55 21 0
-101 -121 -142 0
55 -69 19 0
38 138 -134 0
142 -84 47 0
92 -75 91 0
-139 -133 -86 0
12 100 -147 0
-122 -132 -136 0
-140 78 72 0
-100 149 9 0
-89 -34 -27 0
48 1 -128 0
129 24 -85 0
-53 52 100 0
-37 145 -127 0
-26 37 115 0
96 57 -64 0
131 67 5 0
71 -46 36 0
84 -78 -70 0
-4 -38 77 0
19 100 137 0
-124 125 149 0
-86 -25 78 0
49 127 -45 0
77 3 73 0
-114 -143 -88 0
53 80 52 0
-9 22 41 0
-41 136 112 0
89 -99 -76 0
129 -52 98 0
-146 73 -134 0
-49 -22 150 0
135 121 9 0
-132 -121 15 0
-59 34 -69 0
23 79 100 0
133 45 61 0
-106 -147 -111 0
-115 126 55 0
43 23 64 0
101 -19 133 0
-6 -92 -102 0
-65 -95 7 0
92 -135 -43 0
150 25 -52 0
-19 40 87 0
-101 44 22 0
77 15 -38 0
107 81 97 0
66 -104 77 0
-42 -79 -119 0
3 92 -56 0
136 54 -119 0
-58 -127 121 0
46 66 -44 0
-46 -138 -126 0
28 -35 130 0
150 -142 -119 0
130 -19 150 0
-142 32 -46 0
-3 76 -10 0
-37 -83 134 0
-19 8 97 0
-100 -89 -101 0
138 108 82 0
-29 -91 -33 0
77 119 -124 0
-36 5 39 0
-8 -103 96 0
-121 -139 -85 0
84 -76 58 0
-5 -80 93 0
142 -91 94 0
-11 -15 -72 0
-6 103 -98 0
-12 -149 81 0
-129 -22 87 0
40 96 126 0
100 -104 -12 0
47 -135 24 0
-90 112 25 0
-94 -67 -142 0
-18 81 62 0
79 -73 51 0
60 -76 -37 0
69 -88 102 0
-85 90 103 0
-1 99 -79 0
-110 -107 8 0
-140 -41 98 0
121 -59 -5 0
-39 -117 -128 0
128 -52 -4 0
-150 -79 -102 0
-28 -122 75 0
149 -140 138 0
-76 78 58 0
-134 71 -28 0
91 -89 117 0
-109 -116 -148 0
-136 21 -89 0
-33 -59 42 0
-24 101 -73 0
-148 -116 101 0
-150 105 -76 0
-21 124 -92 0
-28 -148 113 0
-125 -81 108 0
72 15 -106 0
-99 -47 111 0
-123 -42 -117 0
-62 55 -45 0
-126 -52 17 0
-50 108 149 0
-12 -111 122 0
-118 -31 -95 0
120 -4 -19 0
66 -92 75 0
7 125 -28 0
-101 -89 43 0
67 -84 -96 0
137 -86 -47 0
-14 5 -99 0
-123 116 79 0
-15 22 -130 0
-37 -1 97 0
45 -18 128 0
-135 -121 -8 0
-143 31 126 0
112 124 28 0
-88 130 58 0
139 1 -25 0
-27 -58 109 0
40 10 140 0
-26 61 -6 0
98 -61 -147 0
-136 141 -19 0
-143 38 -67 0
-120 146 78 0
29 -120 95 0
102 -48 23 0
47 -96 -3 0
124 99 -22 0
-101 -87 129 0
-97 122 9 0
-30 -58 135 0
-5 70 -88 0
-121 48 22 0
9 23 144 0
123 -59 -29 0
-90 106 126 0
-131 -100 -86 0
133 -80 -32 0
149 -48 -41 0
70 -66 68 0
-22 -89 147 0
-126 99 -72 0
-144 44 -90 0
-76 -57 -46 0
44 72 90 0
-132 45 15 0
-116 -132 1 0
58 133 -79 0
40 -16 92 0
146 96 149 0
48 123 148 0
-111 -148 138 0
-18 -113 37 0
-14 47 111 0
122 47 128 0
10 43 107 0
141 -53 -48 0
-23 -78 58 0
-66 18 85 0
18 133 43 0
-59 -119 -37 0
136 -116 -119 0
-11 -78 -37 0
130 -6 -2 0
118 110 73 0
-9 119 136 0
