p cnf 100 426
-28 -97 -11 0
16 -62 -50 0
29 4 20 0
81 -56 78 0
81 -79 76 0
2 -32 19 0
-74 -94 30 0
-69 -20 -82 0
23 -49 -78 0
-80 73 42 0
-24 79 -54 0
-36 -98 32 0
91 94 -70 0
-15 10 40 0
-33 4 -78 0
62 11 -43 0
-89 8 -99 0
100 -62 68 0
-46 74 -13 0
50 31 -60 0
51 93 -3 0
10 69 -1 0
76 73 63 0
-74 -26 -78 0
41 -98 -45 0
33 93 58 0
-87 28 51 0
-68 55 -19 0
56 -14 -21 0
-21 -27 4 0
-32 -5 -96 0
-22 -81 -33 0
29 22 -15 0
68 26 -11 0
-46 98 38 0
-18 -1 -9 0
18 -70 61 0
-92 21 -63 0
81 -51 -42 0
-46 43 -12 0
11 5 -66 0
33 -91 17 0
7 -2 27 0
31 -42 5 0
91 25 -86 0
36 26 59 0
56 -99 74 0
-78 15 54 0
-55 79 -50 0
-2 32 27 0
33 9 3 0
-60 1 -4 0
43 -71 4 0
-53 39 -19 0
67 1 76 0
-41 -3 -84 0
-91 -54 13 0
21 -91 -43 0
-18 85 -71 0
25 59 83 0
-35 -95 8 0
-52 -23 -44 0
6 -99 -14 0
-42 -41 65 0
-91 70 71 0
-57 -36 69 0
46 -69 65 0
-70 -56 9 0
-17 23 -78 0
43 -89 -99 0
-24 6 42 0
-42 -57 64 0
-88 -25 58 0
91 40 98 0
-33 42 -99 0
-1 -71 -73 0
-74 60 5 0
-22 24 -15 0
77 -100 49 0
-59 56 -88 0
-74 67 -76 0
-64 -36 -50 0
-94 74 -78 0
77 -17 60 0
51 -7 -29 0
-67 87 46 0
-83 -72 79 0
99 -34 100 0
-32 -7 -92 0
-61 -31 -64 0
-94 84 -39 0
-83 85 33 0
-6 -58 -52 0
-18 50 -82 0
-39 -99 58 0
51 4 -94 0
-66 -27 -79 0
73 -95 -7 0
-55 47 -65 0
87 -64 -43 0
49 -62 -68 0
-87 -5 63 0
57 -84 86 0
-50 13 -88 0
83 -81 1 0
21 -20 25 0
2 -31 25 0
-71 -43 88 0
-98 18 88 0
-31 41 89 0
80 -58 20 0
17 32 35 0
-79 -43 5 0
-45 89 -58 0
5 6 53 0
-40 -34 -47 0
15 -99 -21 0
77 -12 -82 0
2 -54 42 0
-20 -22 -70 0
47 -50 38 0
86 1 -33 0
75 43 -7 0
55 -1 -64 0
87 40 28 0
-25 74 -93 0
5 -4 67 0
-73 -49 93 0
55 -73 3 0
-73 -57 48 0
59 -99 -78 0
-4 -93 9 0
-8 27 -75 0
59 56 77 0
-24 94 10 0
-88 -30 76 0
-77 -21 -74 0
15 1 44 0
-54 6 8 0
30 84 60 0
-7 41 -37 0
-69 -57 22 0
-25 -20 -21 0
-96 4 -11 0
71 -7 38 0
-75 42 18 0
-73 -54 -89 0
-34 57 -20 0
44 23 47 0
-33 -61 64 0
1 90 78 0
100 -7 -56 0
-78 59 -20 0
-77 18 66 0
-93 10 91 0
4 1 -44 0
55 -5 -43 0
-2 -26 10 0
-40 -61 74 0
-75 -68 -25 0
-34 18 72 0
-88 -35 11 0
-78 11 79 0
57 1 -90 0
93 -88 52 0
-6 -62 60 0
37 -8 -29 0
94 -57 -77 0
-38 53 11 0
5 74 -1 0
64 -72 95 0
-7 -20 45 0
-98 -81 30 0
-2 -87 23 0
80 78 -61 0
85 -43 82 0
96 -58 40 0
-50 -85 87 0
84 22 8 0
100 93 -28 0
-88 -47 12 0
100 79 99 0
-97 -51 -95 0
-49 -69 -15 0
1 -68 -41 0
-59 -39 -77 0
-79 93 51 0
79 -5 -66 0
65 52 22 0
33 -34 -43 0
27 24 34 0
57 -95 76 0
8 -90 67 0
-69 -33 -53 0
-86 -94 42 0
46 -74 53 0
-85 -59 -93 0
69 2 -98 0
54 -34 20 0
-18 2 -43 0
-74 -67 62 0
-79 -19 9 0
-88 33 78 0
-1 -38 -23 0
-62 -93 -71 0
24 11 34 0
69 7 -35 0
-24 -55 -58 0
-65 -67 -84 0
60 61 43 0
-58 98 38 0
-79 -18 -93 0
54 -1 89 0
-59 -43 -85 0
-33 49 32 0
-36 68 37 0
93 -86 45 0
-47 53 71 0
31 8 -60 0
-67 4 41 0
-91 17 58 0
28 -57 -87 0
-97 -63 9 0
39 -59 -46 0
14 -17 81 0
-70 -24 -72 0
51 -54 10 0
66 43 52 0
-38 11 -67 0
88 67 23 0
-85 67 91 0
41 -79 -35 0
-98 -40 -23 0
-69 37 58 0
-11 86 -29 0
-72 -59 12 0
96 21 3 0
-56 -38 -17 0
70 -50 -18 0
44 24 61 0
4 -93 -32 0
-58 72 29 0
96 -1 -53 0
-35 -82 -45 0
82 91 48 0
-25 -84 17 0
83 92 99 0
-68 46 -91 0
-100 -60 29 0
-71 45 -58 0
-33 6 98 0
-38 -53 -67 0
-75 58 59 0
-62 72 -69 0
54 -82 37 0
-51 44 -49 0
-66 86 -34 0
27 -24 -92 0
-21 37 70 0
89 -57 -4 0
31 87 -79 0
87 36 21 0
82 72 77 0
-92 7 -29 0
-89 -16 31 0
-98 49 19 0
-80 -7 -42 0
5 70 -87 0
-27 59 36 0
-3 17 -82 0
-59 10 41 0
-80 -48 -60 0
-46 -64 44 0
48 -4 -44 0
-50 18 73 0
-66 -47 -37 0
21 -89 -41 0
-19 -8 -59 0
-65 21 100 0
-9 79 -81 0
-48 63 38 0
27 -6 -86 0
34 -60 -26 0
-39 8 -25 0
-23 -93 12 0
-37 -2 -95 0
-56 -30 38 0
-33 12 -23 0
-5 47 92 0
41 75 -73 0
62 -78 -33 0
20 42 -39 0
-12 -15 -27 0
-30 34 65 0
-77 -99 -88 0
55 70 54 0
17 15 99 0
12 90 91 0
-12 -38 76 0
-68 -78 -7 0
75 -49 87 0
-15 -74 14 0
20 9 -86 0
94 -90 27 0
56 -81 -52 0
-92 90 -9 0
-28 89 71 0
65 98 -62 0
15 31 -93 0
-32 35 -34 0
10 33 67 0
92 -64 59 0
84 -59 -20 0
27 16 51 0
83 -65 -94 0
96 -99 -8 0
-4 -25 -98 0
27 8 55 0
77 -78 -36 0
51 -88 -78 0
32 28 89 0
-88 -41 -67 0
9 36 84 0
-28 39 -4 0
100 -63 -38 0
-71 25 80 0
-77 94 1 0
42 70 -89 0
96 -36 46 0
-99 -15 -74 0
-40 67 22 0
-72 27 -71 0
-82 -25 19 0
89 31 53 0
54 36 -67 0
13 51 30 0
30 -14 -59 0
62 52 5 0
-66 14 -15 0
-48 -57 -23 0
90 -49 9 0
-40 -50 4 0
67 -78 -22 0
44 -91 -81 0
-23 95 -51 0
33 100 30 0
-4 -26 -38 0
-41 36 44 0
55 4 2 0
-77 53 -83 0
-29 67 49 0
-17 -89 -13 0
-96 27 50 0
-8 -75 42 0
75 -25 -34 0
53 88 47 0
-89 34 97 0
-68 81 -33 0
61 60 -5 0
-74 43 -92 0
-40 24 -77 0
50 55 74 0
95 -97 -90 0
56 -17 -61 0
-15 -54 -96 0
9 83 -58 0
37 90 97 0
16 53 92 0
-36 -94 -66 0
88 6 -7 0
-14 17 -88 0
-58 52 -10 0
-100 73 -39 0
-37 -23 -81 0
32 41 -92 0
70 26 -82 0
-61 -92 -46 0
72 -16 85 0
-42 -49 36 0
-11 -44 -67 0
-9 -68 -60 0
-77 -36 10 0
-74 16 15 0
-52 33 49 0
75 -65 31 0
-39 -23 94 0
-94 -99 -86 0
44 -91 -24 0
-38 -72 87 0
-8 61 72 0
-32 23 -43 0
-94 -99 72 0
-22 -52 -62 0
-86 52 53 0
-93 -27 -71 0
47 59 -9 0
-68 18 14 0
88 -96 -61 0
-3 58 -6 0
-68 81 -66 0
-98 -56 97 0
64 -97 -91 0
31 35 -65 0
56 63 93 0
88 23 79 0
-37 87 35 0
55 61 -51 0
66 -21 65 0
62 -74 45 0
40 43 98 0
-23 51 79 0
-96 50 85 0
48 -57 -29 0
-5 60 -97 0
94 49 30 0
83 -20 35 0
-17 44 -91 0
-76 4 -8 0
-27 52 -93 0
25 18 64 0
-20 69 -46 0
67 -30 -60 0
29 64 -87 0
-14 -5 -30 0
-94 90 -92 0
40 -19 84 0
