p cnf 200 852
-22 133 76 0
-114 168 67 0
-157 24 104 0
-1 46 -180 0
166 -63 195 0
200 162 199 0
-92 -38 49 0
170 -54 -187 0
-75 105 -126 0
-77 -38 16 0
73 89 16 0
132 -17 79 0
-41 173 -1 0
24 -102 122 0
179 23 159 0
194 -33 -76 0
144 -149 -167 0
23 -175 -52 0
-65 103 -48 0
48 -18 174 0
-85 -52 -140 0
-186 -149 -128 0
-5 -154 -155 0
-34 -3 -144 0
187 42 162 0
27 -69 -95 0
92 49 -189 0
-170 26 25 0
106 28 61 0
-47 -66 91 0
92 64 -183 0
-109 176 69 0
-69 96 -195 0
-181 -176 15 0
-16 -136 51 0
111 64 -83 0
-80 192 24 0
65 143 49 0
-189 109 -84 0
34 18 136 0
64 -180 146 0
141 46 -79 0
104 -1 189 0
-45 -93 -142 0
-184 98 141 0
-99 -196 -54 0
186 112 -109 0
-93 59 -135 0
153 116 162 0
180 -43 81 0
-142 -6 117 0
47 -73 -32 0
184 -27 188 0
127 138 -83 0
163 -62 84 0
-4 -111 -123 0
-172 -141 34 0
153 100 199 0
135 -63 -142 0
-122 -134 -177 0
-124 181 194 0
40 -146 69 0
-107 170 -9 0
-33 79 105 0
-170 98 197 0
3 -21 -125 0
-180 11 30 0
-144 -124 -177 0
-42 -166 -16 0
-169 113 -181 0
-177 -123 -161 0
-34 -131 -106 0
192 37 32 0
-43 89 47 0
-138 110 -50 0
-43 -19 -124 0
13 -114 86 0
145 165 152 0
33 143 134 0
-61 -37 108 0
119 -153 -16 0
177 28 -140 0
36 -35 -44 0
-173 -21 27 0
102 90 49 0
-116 -198 -57 0
66 -122 -191 0
36 -84 67 0
32 144 195 0
172 120 -125 0
140 -72 -92 0
178 10 58 0
19 89 -107 0
55 80 -46 0
-138 -101 -30 0
197 64 -32 0
199 -9 -187 0
-142 56 -110 0
-173 -118 26 0
-140 191 126 0
178 9 36 0
-88 -10 177 0
-137 -13 -192 0
-21 -60 -122 0
-165 -39 -72 0
-115 -66 47 0
-82 65 144 0
-1 -33 -17 0
-172 52 69 0
-46 110 173 0
126 -81 -146 0
83 94 175 0
-159 -127 -139 0
150 112 -63 0
-110 77 -45 0
162 -40 -72 0
-90 -54 -192 0
109 124 -120 0
31 -193 2 0
86 142 -189 0
16 39 76 0
161 -2 180 0
200 -18 -68 0
-81 -9 -21 0
-36 -53 -71 0
-32 -137 69 0
73 -49 23 0
143 -51 -99 0
175 -101 -147 0
-117 -148 -158 0
98 62 -183 0
-57 166 159 0
-57 -17 -97 0
2 -69 13 0
-43 -65 -13 0
112 -183 -108 0
-104 65 12 0
-135 142 -194 0
2 -53 -51 0
95 136 177 0
114 113 171 0
173 -175 -163 0
86 40 -148 0
-167 -56 -151 0
105 32 181 0
70 59 -74 0
21 -103 -169 0
-182 -142 -15 0
-194 -127 180 0
-173 -39 194 0
58 -111 8 0
52 -91 -55 0
158 84 35 0
146 111 -50 0
-147 137 -186 0
-104 -100 89 0
82 13 24 0
-103 -25 -177 0
-52 -2 -32 0
32 143 159 0
45 -76 119 0
31 -82 -24 0
-93 -73 -143 0
113 -187 -24 0
163 -156 -8 0
-139 -102 -18 0
186 179 -140 0
-200 -83 38 0
149 173 -3 0
45 -128 73 0
80 77 60 0
13 9 -152 0
186 22 188 0
166 72 14 0
101 -128 52 0
-75 -98 -20 0
81 -144 -178 0
108 120 -65 0
-148 -75 -88 0
-186 -110 33 0
105 20 184 0
-76 65 31 0
166 199 -108 0
191 -107 53 0
-42 -111 -53 0
-175 -54 -86 0
43 -118 -180 0
125 -109 -102 0
197 145 193 0
-182 -188 -191 0
161 82 -69 0
116 111 -77 0
-47 -123 -62 0
122 108 -20 0
-160 -65 -138 0
-11 196 -108 0
168 -29 55 0
-131 89 -132 0
-134 -41 -13 0
-75 -100 -6 0
133 -175 162 0
106 -10 -186 0
66 -63 -159 0
-141 -175 -22 0
-107 121 86 0
70 162 177 0
-13 -120 170 0
-41 -179 118 0
-200 -157 -196 0
172 148 86 0
100 -160 -54 0
-87 -19 -10 0
-125 -141 80 0
16 96 -77 0
167 -133 157 0
-126 121 -131 0
-95 -168 -196 0
156 -26 -137 0
136 169 -55 0
109 -197 91 0
10 83 -157 0
179 -115 192 0
137 191 141 0
70 26 -6 0
156 -100 -40 0
-147 46 51 0
67 34 162 0
41 -164 159 0
3 109 76 0
93 -42 -77 0
164 195 68 0
-115 -28 138 0
133 95 -53 0
27 157 -90 0
-69 -163 -136 0
11 -135 114 0
68 16 -159 0
56 -82 -197 0
7 -138 40 0
-32 86 -4 0
-76 175 166 0
26 77 -21 0
-198 89 124 0
-89 197 187 0
-89 -144 117 0
123 -197 -20 0
78 -69 128 0
22 197 194 0
115 -95 64 0
-84 -52 120 0
172 128 -26 0
-56 -149 106 0
-170 33 -135 0
-120 -163 155 0
171 95 -12 0
200 -145 -164 0
68 32 127 0
-166 -170 188 0
-92 195 -157 0
124 -196 178 0
23 -103 -69 0
-141 -147 -78 0
-194 -97 -41 0
-6 -132 -146 0
67 -142 -197 0
-43 -12 -129 0
187 -144 -175 0
168 -194 188 0
-126 -114 32 0
-134 92 191 0
58 158 164 0
62 73 -172 0
173 -119 27 0
-33 -83 -190 0
-69 31 -134 0
29 -174 -183 0
122 -52 153 0
27 -116 148 0
199 -179 -36 0
-176 116 3 0
116 -24 -163 0
-113 118 -163 0
195 -137 165 0
-101 -2 -138 0
21 -158 -46 0
-149 109 -54 0
-60 -44 -86 0
128 4 -191 0
-68 -66 -106 0
-27 -189 109 0
168 170 69 0
186 8 -123 0
-31 177 -76 0
38 131 150 0
103 40 -152 0
-171 113 31 0
-142 50 133 0
-40 -182 -186 0
72 -19 98 0
131 -170 175 0
18 3 -98 0
-108 48 110 0
-144 57 188 0
-108 -187 -124 0
-188 -200 -50 0
-152 -6 -1 0
-54 132 -72 0
-97 153 142 0
172 17 44 0
-173 43 150 0
108 -28 -80 0
-89 -19 -83 0
189 -47 -115 0
-195 -75 16 0
108 91 -15 0
189 -63 132 0
106 107 138 0
-22 92 41 0
106 117 -74 0
194 -10 50 0
-68 -70 98 0
-90 -13 -66 0
39 -105 -35 0
-125 -105 31 0
-104 -144 -157 0
-20 145 37 0
28 -125 -162 0
-90 102 83 0
44 -109 -59 0
-71 -169 30 0
21 173 -127 0
2 -25 -134 0
-144 71 -32 0
138 124 -16 0
93 -143 2 0
122 85 -95 0
-112 102 -66 0
-92 -118 4 0
-14 118 -156 0
-119 -69 -172 0
-20 194 135 0
4 152 -85 0
-161 -145 77 0
-168 -41 -23 0
-23 88 -167 0
-194 -126 -93 0
22 170 -53 0
149 102 -185 0
127 -98 -68 0
-60 38 -120 0
-17 73 185 0
74 -113 -134 0
103 175 92 0
10 -115 98 0
19 115 -8 0
136 -145 71 0
144 -102 -42 0
136 -28 164 0
2 -147 185 0
172 182 110 0
-185 -199 -155 0
128 -90 196 0
144 -96 -25 0
45 -13 -79 0
-24 169 -82 0
138 178 141 0
189 -93 115 0
-10 114 -141 0
-77 -184 -136 0
136 123 -55 0
-117 -18 120 0
-88 -188 53 0
74 51 -17 0
48 -94 -131 0
152 -142 -36 0
-43 137 -22 0
48 -190 -172 0
-200 -71 19 0
-35 130 -60 0
43 16 170 0
-6 -131 -56 0
137 157 2 0
148 181 -137 0
92 40 -139 0
-98 -71 -179 0
112 -139 -156 0
-15 -55 -38 0
144 30 149 0
-198 -94 179 0
54 -174 -91 0
-45 -11 154 0
195 83 152 0
45 105 -183 0
-116 19 -82 0
151 146 -60 0
123 36 -101 0
-43 -155 -53 0
-69 -79 -144 0
191 156 -80 0
-62 37 85 0
-73 -200 157 0
39 200 -167 0
-9 -146 144 0
166 -61 -95 0
-73 114 193 0
-124 -139 128 0
-92 106 -81 0
4 92 -177 0
-77 76 63 0
68 193 -93 0
-144 11 -91 0
27 -167 -138 0
138 48 -164 0
-145 -77 88 0
-199 -161 166 0
-155 -90 117 0
101 127 -103 0
73 -13 20 0
-195 13 -82 0
-58 123 -43 0
134 113 144 0
185 -13 94 0
-101 187 -14 0
48 -146 131 0
-37 -41 177 0
-125 -192 -48 0
177 137 24 0
90 -196 -35 0
-80 45 88 0
-115 76 27 0
-47 -28 64 0
103 -122 -52 0
-127 -111 46 0
-25 86 69 0
-157 156 -60 0
-85 139 70 0
-165 -125 168 0
-163 -33 191 0
113 -87 -26 0
-166 92 39 0
-173 168 28 0
112 -54 -123 0
-157 103 -70 0
-94 -100 -138 0
-17 -32 -28 0
-69 38 110 0
23 -116 -176 0
-101 -5 60 0
-26 127 -28 0
-60 107 54 0
-156 -40 28 0
-38 -192 133 0
21 132 -81 0
-30 -71 -137 0
-135 -18 94 0
-180 -27 -8 0
-173 -93 92 0
-7 112 -39 0
153 -171 29 0
-147 97 -62 0
-139 -180 129 0
30 -142 108 0
167 29 104 0
-186 165 -15 0
65 -84 -87 0
-23 175 -14 0
130 93 -102 0
-122 158 -125 0
91 135 -21 0
-50 197 -188 0
146 -40 -125 0
-189 109 -44 0
137 82 91 0
-85 -130 122 0
55 156 3 0
-132 -33 25 0
137 197 -168 0
86 153 -150 0
135 -126 164 0
136 -131 166 0
-112 185 6 0
16 -86 -173 0
-77 -170 117 0
95 30 86 0
-150 -30 -93 0
-198 34 136 0
26 -186 197 0
-120 -156 -172 0
174 101 -41 0
9 -184 75 0
-64 -113 53 0
-143 -186 -3 0
-198 52 -138 0
85 -104 108 0
-36 -16 34 0
-200 196 98 0
-4 -165 65 0
-143 92 -142 0
89 -167 -30 0
-170 51 -160 0
63 -191 -58 0
103 131 159 0
14 -77 -48 0
146 151 88 0
-156 -94 -108 0
79 -165 -30 0
56 102 -94 0
89 -73 62 0
183 -28 63 0
72 -108 56 0
-15 -47 142 0
168 154 -66 0
19 -119 -140 0
141 -99 167 0
70 50 54 0
-138 152 103 0
110 -6 -190 0
-148 -139 -150 0
159 2 120 0
-58 -25 -94 0
-141 167 129 0
-137 -18 -85 0
-97 -130 129 0
-172 28 186 0
106 72 -22 0
170 -185 -64 0
-173 -110 -62 0
-113 -151 -44 0
23 -179 105 0
-62 -89 -22 0
110 -55 -133 0
-119 -182 36 0
89 12 -56 0
159 11 165 0
-127 -89 -156 0
-171 -140 -125 0
-79 47 46 0
-86 170 134 0
-126 199 -9 0
-8 -38 -67 0
124 147 -138 0
-39 -135 -179 0
-112 127 -198 0
-111 -150 101 0
-94 -168 166 0
-19 -163 -27 0
39 93 162 0
19 -125 158 0
26 162 -122 0
-73 -101 -39 0
162 -195 155 0
122 -105 108 0
-34 -8 54 0
200 -138 -182 0
40 183 -137 0
27 -37 30 0
164 79 -136 0
-140 117 -193 0
34 -179 28 0
117 -121 99 0
-124 -85 155 0
174 8 -98 0
157 -72 79 0
-165 124 199 0
187 -184 131 0
153 -20 28 0
182 12 30 0
142 123 74 0
-197 150 156 0
-30 -75 59 0
-7 79 173 0
136 129 15 0
-60 116 -182 0
-194 183 -41 0
158 -77 36 0
-91 -47 -150 0
175 161 -150 0
-200 16 -69 0
-184 -140 -107 0
130 79 -113 0
87 -97 29 0
84 -70 -167 0
-8 6 -87 0
-152 -121 -76 0
127 18 -42 0
136 54 -95 0
143 54 -161 0
14 134 -162 0
2 -115 27 0
-180 38 -173 0
-144 -115 -60 0
-19 115 -191 0
3 -91 11 0
114 -140 -70 0
37 200 -113 0
-13 28 59 0
-115 -61 -58 0
-14 64 113 0
96 -194 168 0
-132 98 -119 0
-51 164 -198 0
-95 -177 145 0
-128 108 -53 0
-90 -20 70 0
-14 71 191 0
-190 -57 -136 0
182 -105 98 0
-177 -131 -183 0
-92 127 -120 0
-162 -153 -117 0
-160 140 -194 0
-20 -30 -19 0
93 -44 -139 0
185 12 -137 0
-176 -11 130 0
-142 11 144 0
-71 121 162 0
142 62 16 0
56 -59 143 0
-40 -38 -116 0
-23 -122 -142 0
-114 -19 -15 0
-21 181 171 0
81 -24 -39 0
13 -130 64 0
74 -111 37 0
-3 -9 194 0
44 -93 -158 0
-62 -141 52 0
122 -11 -115 0
-5 -175 195 0
105 -5 -88 0
-80 3 -144 0
199 179 28 0
-127 143 -155 0
173 -128 140 0
-159 13 -33 0
-50 191 131 0
-50 165 -102 0
103 -56 13 0
120 194 200 0
-143 46 -173 0
-20 -58 64 0
-41 -125 -73 0
36 41 43 0
167 -64 -159 0
172 158 179 0
124 -100 146 0
-74 -24 81 0
70 -151 -111 0
-80 -116 28 0
-192 -100 147 0
-110 79 -167 0
-5 -153 -130 0
-84 -82 14 0
-52 56 170 0
42 -110 -198 0
-180 146 88 0
194 -154 -94 0
-144 -26 97 0
108 12 -84 0
-152 -118 -142 0
-100 -117 187 0
141 24 -40 0
152 -96 110 0
-40 12 102 0
36 -7 -47 0
192 160 198 0
52 152 100 0
12 93 166 0
-102 95 -73 0
14 28 -166 0
137 33 173 0
-70 -62 -170 0
9 102 -120 0
-93 6 -124 0
-169 -43 91 0
-35 -167 45 0
-39 167 133 0
-120 -78 -18 0
77 171 53 0
53 145 -17 0
12 6 -144 0
140 119 148 0
-81 -122 65 0
53 -38 -20 0
108 164 138 0
14 -162 -124 0
115 -9 -124 0
-108 -124 -85 0
153 -1 164 0
152 -57 113 0
15 183 130 0
101 90 15 0
70 -139 -75 0
-29 -163 28 0
39 61 -15 0
147 -129 24 0
-184 -127 38 0
87 43 47 0
136 -58 31 0
36 -146 56 0
-154 99 138 0
16 -189 141 0
75 -190 141 0
-15 28 87 0
119 5 -172 0
-41 -186 4 0
82 -138 86 0
-14 -32 -127 0
44 15 118 0
187 38 160 0
165 85 108 0
79 100 -8 0
137 -177 -67 0
180 -149 163 0
-187 -47 110 0
-183 -47 -200 0
-62 53 -168 0
183 97 156 0
-59 -178 132 0
-90 144 156 0
-84 -77 -102 0
36 134 146 0
-64 -157 171 0
-18 13 -42 0
-152 -135 -43 0
-192 -147 156 0
-133 -147 -137 0
51 -34 -120 0
-85 -95 -92 0
-50 193 68 0
-33 142 154 0
-67 -124 -145 0
-2 -148 -43 0
-136 32 -37 0
144 137 -86 0
178 -42 -153 0
-99 -182 -89 0
170 166 34 0
-136 2 -13 0
-29 7 198 0
111 -167 192 0
-58 19 -36 0
-153 182 -157 0
73 -193 116 0
46 104 159 0
-140 -100 -58 0
66 -86 -184 0
-4 -107 9 0
-2 -114 -29 0
-153 197 125 0
-110 -37 -21 0
60 22 -71 0
190 64 28 0
175 183 83 0
162 173 -24 0
-189 -80 -156 0
-14 -2 -189 0
-34 -132 -69 0
127 -36 57 0
-128 -125 -162 0
94 -42 -196 0
-12 137 -41 0
22 -82 -68 0
-152 -107 -156 0
-148 -178 19 0
1 -167 -5 0
148 -185 120 0
-70 58 162 0
189 -130 37 0
-187 56 143 0
-3 91 -106 0
172 161 41 0
-196 40 -134 0
37 -181 -88 0
-197 -74 -35 0
-3 75 -40 0
-75 -60 46 0
123 143 10 0
28 72 195 0
-119 -133 -142 0
83 160 -57 0
151 -142 125 0
90 -126 -43 0
145 -130 -121 0
12 194 180 0
7 -30 -105 0
185 -116 3 0
-87 -94 -17 0
-29 113 -125 0
97 -22 -167 0
-165 176 129 0
-101 157 -13 0
111 62 -197 0
-96 49 -113 0
-16 -31 -162 0
-32 173 -194 0
156 115 -135 0
194 35 -60 0
-137 -103 -66 0
-127 10 -83 0
-15 -124 25 0
-29 -10 159 0
76 17 197 0
147 -124 -185 0
55 20 -16 0
-195 -137 22 0
150 -178 -30 0
68 -61 188 0
-48 67 57 0
-184 71 -48 0
96 62 -140 0
80 8 -154 0
7 177 102 0
56 -32 26 0
105 62 -113 0
22 -156 -195 0
34 45 -10 0
-164 2 -100 0
-8 -69 113 0
79 -190 89 0
-163 73 109 0
190 -168 -172 0
87 -186 189 0
64 120 111 0
53 200 118 0
-73 68 -31 0
-102 9 135 0
153 148 66 0
76 -200 149 0
-101 140 189 0
-133 156 -172 0
74 159 187 0
-121 -95 -83 0
-169 -28 -1 0
47 159 -94 0
59 -192 -193 0
-171 -134 -143 0
106 42 -45 0
-27 26 170 0
-70 3 71 0
118 34 -194 0
-32 -45 82 0
-116 147 200 0
157 49 -183 0
-104 -56 -55 0
-94 122 -129 0
184 -99 -27 0
93 -29 198 0
-28 2 16 0
-70 -22 132 0
