p cnf 50 213
4 -16 -3 0
-18 -24 30 0
2 16 -24 0
31 38 -36 0
48 45 6 0
-37 -50 -14 0
-18 -42 -27 0
-44 -1 -31 0
-1 -15 -17 0
46 42 18 0
17 -14 -30 0
-38 -7 -1 0
-24 36 -42 0
-31 -5 -22 0
-17 -42 46 0
-34 -49 -16 0
39 26 43 0
-32 19 -17 0
-38 46 -37 0
-44 -35 -41 0
-33 -20 11 0
-7 -31 -9 0
-12 44 22 0
20 -27 22 0
-8 -31 -4 0
-5 -31 13 0
-20 27 -4 0
-22 -27 37 0
46 12 -50 0
21 41 -4 0
11 -37 -49 0
-9 40 -28 0
-25 -1 -3 0
21 -49 -34 0
-16 15 45 0
33 -38 20 0
-19 -30 47 0
-44 9 -22 0
11 -26 2 0
-47 2 -38 0
3 -25 41 0
-4 43 -7 0
27 29 -25 0
-14 45 -44 0
-43 -34 18 0
-7 33 -47 0
32 13 -39 0
13 23 -46 0
14 45 -31 0
8 -37 -43 0
-5 -47 7 0
19 -17 -30 0
19 -24 44 0
-49 -3 1 0
23 -29 40 0
22 -12 8 0
-25 -45 -31 0
-8 -9 -45 0
7 -27 38 0
40 25 -50 0
-47 9 31 0
-3 5 -17 0
-34 -50 -48 0
-43 -22 34 0
43 -47 -16 0
10 -36 40 0
31 32 11 0
18 -4 33 0
16 -6 30 0
32 29 -21 0
7 -26 -27 0
39 -40 41 0
43 30 22 0
-30 -22 -36 0
24 -46 29 0
-22 23 -41 0
-45 7 -3 0
48 -47 27 0
-26 14 30 0
-49 -27 -3 0
-50 -29 30 0
-32 -1 34 0
-38 -31 -33 0
12 -47 -9 0
21 -33 -25 0
-16 -18 26 0
-9 -27 39 0
-45 -36 -21 0
-13 -14 -40 0
-9 46 -42 0
41 21 46 0
37 -43 -46 0
-19 28 1 0
43 -4 -13 0
-44 -17 10 0
49 35 -3 0
-44 -48 -36 0
16 -33 -45 0
25 -27 44 0
-17 -13 40 0
-15 41 -46 0
-48 -39 13 0
12 44 -5 0
25 3 28 0
17 -1 22 0
-21 -39 -4 0
-20 32 -37 0
-34 -15 12 0
35 -26 -6 0
22 -24 -19 0
36 -49 42 0
-42 -40 16 0
-8 25 -17 0
-50 24 33 0
-42 -13 21 0
-50 35 -1 0
-14 44 -28 0
-48 -50 -28 0
-10 2 30 0
12 -17 -36 0
-27 25 29 0
44 -8 35 0
-48 38 -3 0
7 19 -44 0
-29 25 26 0
15 -9 -48 0
-41 -10 -20 0
-47 42 -24 0
10 -8 -3 0
-6 -20 14 0
27 42 -33 0
17 -13 -8 0
-49 36 -30 0
-17 7 13 0
9 43 42 0
13 -21 32 0
-38 -10 -37 0
11 1 -21 0
28 -18 -24 0
-30 29 23 0
-42 -39 6 0
-35 -13 -17 0
2 -33 41 0
-38 -14 -3 0
31 42 -50 0
38 -47 19 0
-24 -33 -1 0
-40 44 11 0
-37 43 10 0
15 49 32 0
-43 14 34 0
30 -3 -42 0
-18 -48 17 0
-25 -24 -38 0
25 -15 34 0
-31 39 1 0
5 33 42 0
-39 46 8 0
8 31 44 0
27 -2 16 0
-41 33 3 0
-12 -34 26 0
-47 43 -19 0
-31 -11 -15 0
-50 12 -40 0
-22 30 39 0
-7 -2 -13 0
10 -39 -7 0
35 33 49 0
-39 -35 -1 0
-34 -27 24 0
31 -50 -25 0
45 37 -7 0
-6 19 39 0
-46 48 1 0
-42 14 45 0
28 -42 38 0
-24 40 18 0
36 -31 12 0
-20 37 23 0
43 -8 -48 0
7 14 -33 0
45 44 -46 0
-6 10 31 0
-15 -24 -6 0
-26 -40 -42 0
50 12 -41 0
34 -19 -13 0
-15 40 -11 0
-11 6 18 0
38 -13 -34 0
-36 -19 47 0
-18 15 39 0
1 17 12 0
-19 -22 -8 0
37 17 45 0
-16 49 22 0
38 2 -31 0
15 44 -45 0
-34 35 1 0
-26 44 -48 0
31 -21 23 0
48 44 -13 0
17 14 -15 0
10 50 -7 0
-32 -40 1 0
31 -24 -40 0
37 -18 -32 0
-26 15 -49 0
-31 35 -3 0
-12 30 -8 0
1 44 14 0
17 12 -36 0
